 vasp.5.4.4.18Apr17-6-g9f103f2a35 (build Dec 02 2020 12:53:39) complex

 executed on             LinuxIFC date 2021.07.31  00:40:20

 INCAR:
 POTCAR:    PAW_PBE Na_pv 19Sep2006
 POTCAR:    PAW_PBE Mg_pv 13Apr2007
 POTCAR:    PAW_PBE Mn_pv 02Aug2007
 POTCAR:    PAW_PBE O 08Apr2002

 POTCAR:    PAW_PBE Na_pv 19Sep2006
   VRHFIN =Na: p6s1

   TITEL  = PAW_PBE Na_pv 19Sep2006
   POMASS =   22.990; ZVAL   =    7.000    mass and valenz
   ENMAX  =  259.561; ENMIN  =  194.671 eV

 POTCAR:    PAW_PBE Mg_pv 13Apr2007
   VRHFIN =Mg: p6s2

   TITEL  = PAW_PBE Mg_pv 13Apr2007
   POMASS =   24.305; ZVAL   =    8.000    mass and valenz
   ENMAX  =  403.929; ENMIN  =  302.947 eV

 POTCAR:    PAW_PBE Mn_pv 02Aug2007
   VRHFIN =Mn: 3p4s3d

   TITEL  = PAW_PBE Mn_pv 02Aug2007
   POMASS =   54.938; ZVAL   =   13.000    mass and valenz
   ENMAX  =  269.864; ENMIN  =  202.398 eV

 POTCAR:    PAW_PBE O 08Apr2002
   VRHFIN =O: s2p4

   TITEL  = PAW_PBE O 08Apr2002
   POMASS =   16.000; ZVAL   =    6.000    mass and valenz
   ENMAX  =  400.000; ENMIN  =  300.000 eV

 Optimization of the real space projectors (new method)

 maximal supplied QI-value         = 17.01
 optimisation between [QCUT,QGAM] = [ 10.20, 20.41] = [ 29.16,116.64] Ry
 Optimized for a Real-space Cutoff    1.30 Angstroem

   l    n(q)    QCUT    max X(q) W(low)/X(q) W(high)/X(q)  e(spline)
   1      7    10.205     4.940    0.23E-03    0.84E-03    0.11E-06
   1      7    10.205     6.253    0.40E-03    0.13E-02    0.18E-06
   0      8    10.205    37.438    0.23E-03    0.37E-03    0.42E-07
   0      8    10.205     9.606    0.16E-03    0.26E-03    0.31E-07
 Optimization of the real space projectors (new method)

[...]

   l    n(q)    QCUT    max X(q) W(low)/X(q) W(high)/X(q)  e(spline)
   1      8    10.239     3.658    0.23E-03    0.30E-03    0.98E-07
   1      8    10.239     5.612    0.32E-03    0.65E-03    0.21E-06
   2      7    10.239    55.373    0.42E-03    0.45E-03    0.65E-07
   2      7    10.239    50.863    0.43E-03    0.48E-03    0.67E-07
   0      8    10.239    79.536    0.11E-03    0.21E-03    0.56E-07
   0      8    10.239    38.668    0.96E-04    0.19E-03    0.52E-07
 Optimization of the real space projectors (new method)

 maximal supplied QI-value         = 24.76
 optimisation between [QCUT,QGAM] = [ 10.15, 20.30] = [ 28.85,115.39] Ry
 Optimized for a Real-space Cutoff    1.38 Angstroem

   l    n(q)    QCUT    max X(q) W(low)/X(q) W(high)/X(q)  e(spline)
   0      8    10.150    20.381    0.22E-03    0.32E-03    0.29E-06
   0      8    10.150    15.268    0.23E-03    0.35E-03    0.30E-06
   1      8    10.150     5.964    0.46E-03    0.53E-03    0.21E-06
   1      8    10.150     5.382    0.38E-03    0.45E-03    0.19E-06
  PAW_PBE Na_pv 19Sep2006               :
  PAW_PBE Mg_pv 13Apr2007               :
  PAW_PBE Mn_pv 02Aug2007               :
  PAW_PBE O 08Apr2002                   :

 POSCAR: Na Mg Mn  O
  positions in cartesian coordinates

 METAGGA = SCAN     LMAXTAU =  6    LMIXTAU =  F

 VTST: version 3.2, (02/03/18)

 CHAIN: initializing optimizer

 OPT: Using VASP Dynamics algorithm
 CHAIN: Read ICHAIN            0

 POSCAR: Na Mg Mn  O
  positions in cartesian coordinates

 ion  position               nearest neighbor table
   1  0.536  0.017  0.243-  53 2.13  62 2.22  42 2.29  29 2.82  31 2.93
   2  0.684  0.135  0.753-  60 2.28  46 2.34  49 2.37
   3  0.474  0.443  0.753-  48 2.32  33 2.93
   4  0.621  0.779  0.757-  85 2.26  59 2.34  40 2.91
   5  0.196  0.936  0.249-  76 2.31  51 2.31  67 2.34
   6  0.684  0.420  0.250-  43 2.21  75 2.24  52 2.30
   7  0.203  0.639  0.748-  81 2.25  83 2.32  84 2.37
   8  0.814  0.538  0.761-  71 2.17  68 2.28  73 2.33  34 2.86
   9  0.971  0.138  0.245-  54 2.23  55 2.29  64 2.32  30 2.97
  10  0.035  0.494  0.242-  77 2.23  86 2.26  66 2.37  37 2.88
  11  0.330  0.293  0.253-  87 2.25
  12  0.033  0.963  0.744-  44 2.19  27 2.84  25 2.93
  13  0.325  0.970  0.752-  47 2.14
  14  0.017  0.273  0.756-  60 2.29  61 2.33
  15  0.496  0.650  0.257-  88 2.20  79 2.30
  16  0.831  0.777  0.256-  65 2.27  74 2.36
  17  0.685  0.290  0.996-  66 1.95  49 1.98  71 1.99  60 2.09  43 2.16  53 2.20  26 2.78  37 2.81

  18  0.330  0.126  0.504-  44 1.93  45 1.95  51 2.01  50 2.07  52 2.13  46 2.17  35 2.81  27 2.83

[...]

  23  0.689  0.791  0.003-  72 2.01  85 2.03  54 2.04  59 2.10  65 2.18  79 2.21  29 2.85  25 2.85

  24  0.325  0.609  0.486-  87 1.93  86 2.02  80 2.07  82 2.08  88 2.14  81 2.24  32 2.71
  25  0.017  0.954  0.004-  61 1.94  41 1.94  67 1.95  72 1.96  54 1.96  47 2.06  23 2.85  30 2.89
                            34 2.89  12 2.93  26 3.01
  26  0.364  0.130  0.010-  48 1.87  43 1.89  42 1.89  49 1.93  41 1.94  47 2.03  17 2.78  33 2.85
                            29 2.91  25 3.01
  27  0.004  0.967  0.493-  63 1.81  58 1.83  50 1.85  44 1.96  76 1.99  69 2.01  20 2.79  18 2.83
                            12 2.84  32 2.86  36 2.95  40 2.96
  28  0.663  0.284  0.512-  46 1.85  52 1.92  68 1.92  62 1.93  57 1.98  75 2.04  35 2.85  31 2.85
                            39 2.88
  29  0.518  0.949  0.997-  84 1.86  42 1.87  59 1.88  79 1.88  53 1.94  49 2.05   1 2.82  38 2.83
                            23 2.85  30 2.89  26 2.91
  30  0.852  0.122  0.999-  53 1.88  55 1.90  54 1.90  60 1.91  59 1.95  61 1.95  37 2.84  25 2.89
                            29 2.89   9 2.97
  31  0.499  0.956  0.500-  51 1.84  62 1.86  88 1.92  56 1.94  81 1.96  46 2.04  28 2.85  40 2.88
                            36 2.91   1 2.93
  32  0.168  0.297  0.493-  87 1.89  45 1.92  64 1.94  50 1.96  58 1.96  80 1.97  24 2.71  20 2.79
                            27 2.86  35 2.90  39 2.96
  33  0.517  0.459  0.012-  71 1.87  78 1.89  48 1.91  65 1.94  85 1.98  43 2.10  26 2.85  38 2.93
                            34 2.93   3 2.93
  34  0.854  0.621  0.008-  71 1.85  73 1.88  66 1.94  72 1.96  67 1.97  65 2.02  37 2.84   8 2.86
                            25 2.89  33 2.93
  35  0.501  0.449  0.488-  52 1.83  74 1.87  45 1.90  87 1.91  68 2.01  82 2.02  18 2.81  28 2.85
                            32 2.90  40 2.95
  36  0.163  0.787  0.495-  86 1.83  76 1.85  70 1.89  51 1.99  81 1.99  44 2.02  39 2.80  22 2.85
                            31 2.91  27 2.95
  37  0.009  0.448  0.988-  77 1.87  55 1.89  66 1.90  83 1.91  60 1.92  73 2.01  17 2.81  30 2.84
                            34 2.84  19 2.84  10 2.88  38 2.93
  38  0.345  0.624  0.998-  79 1.84  77 1.87  78 1.90  85 1.94  84 1.96  83 1.98  21 2.80  19 2.82
                            29 2.83  33 2.93  37 2.93
  39  0.995  0.465  0.507-  70 1.85  57 1.86  75 1.89  86 1.95  80 1.96  64 2.06  36 2.80  22 2.82
                            28 2.88  32 2.96
  40  0.664  0.788  0.499-  56 1.89  82 1.91  69 1.92  88 1.92  63 1.97  74 2.13  31 2.88   4 2.91
                            35 2.95  27 2.96
  41  0.188  0.108  0.098-  26 1.94  25 1.94  19 2.23
  42  0.369  0.964  0.086-  29 1.87  26 1.89  21 2.07   1 2.29
  43  0.510  0.280  0.115-  26 1.89  33 2.10  17 2.16   6 2.21
  44  0.163  0.958  0.589-  18 1.93  27 1.96  36 2.02  12 2.19
  45  0.334  0.302  0.581-  35 1.90  32 1.92  18 1.95
  46  0.516  0.128  0.606-  28 1.85  31 2.04  18 2.17   2 2.34
  47  0.196  0.970  0.904-  26 2.03  25 2.06  21 2.07  13 2.14
  48  0.369  0.289  0.920-  26 1.87  33 1.91  19 2.07   3 2.32
  49  0.513  0.124  0.904-  26 1.93  17 1.98  29 2.05   2 2.37
  50  0.157  0.125  0.403-  27 1.85  32 1.96  18 2.07
  51  0.344  0.960  0.414-  31 1.84  36 1.99  18 2.01   5 2.31
  52  0.520  0.300  0.407-  35 1.83  28 1.92  18 2.13   6 2.30
  53  0.687  0.101  0.093-  30 1.88  29 1.94   1 2.13  17 2.20
  54  0.859  0.970  0.096-  30 1.90  25 1.96  23 2.04   9 2.23
  55  0.009  0.293  0.083-  37 1.89  30 1.90  19 1.99   9 2.29
  56  0.657  0.943  0.591-  40 1.89  31 1.94  20 2.18
  57  0.845  0.304  0.597-  39 1.86  28 1.98  20 2.09
  58  0.016  0.122  0.587-  27 1.83  32 1.96  20 2.03
  59  0.682  0.966  0.904-  29 1.88  30 1.95  23 2.10   4 2.34
  60  0.855  0.277  0.898-  30 1.91  37 1.92  17 2.09   2 2.28  14 2.29
  61  0.015  0.114  0.909-  25 1.94  30 1.95  19 2.04  14 2.33
  62  0.651  0.121  0.414-  31 1.86  28 1.93  20 2.11   1 2.22
  63  0.841  0.948  0.409-  27 1.81  40 1.97  20 2.04
  64  0.010  0.307  0.400-  32 1.94  20 2.01  39 2.06   9 2.32
  65  0.684  0.608  0.111-  33 1.94  34 2.02  23 2.18  16 2.27
  66  0.855  0.449  0.087-  37 1.90  34 1.94  17 1.95  10 2.37
  67  0.013  0.792  0.103-  25 1.95  34 1.97  21 2.14   5 2.34
  68  0.663  0.452  0.595-  28 1.92  35 2.01  22 2.09   8 2.28
  69  0.833  0.803  0.591-  40 1.92  27 2.01  22 2.06
  70  0.012  0.631  0.592-  39 1.85  36 1.89  22 2.08
  71  0.684  0.473  0.926-  34 1.85  33 1.87  17 1.99   8 2.17
  72  0.857  0.785  0.911-  25 1.96  34 1.96  23 2.01
  73  0.006  0.625  0.906-  34 1.88  21 2.00  37 2.01   8 2.33
  74  0.661  0.606  0.401-  35 1.87  22 1.94  40 2.13  16 2.36
  75  0.834  0.443  0.406-  39 1.89  28 2.04  22 2.11   6 2.24
  76  0.023  0.808  0.401-  36 1.85  27 1.99  22 2.11   5 2.31
  77  0.171  0.602  0.077-  37 1.87  38 1.87  21 2.00  10 2.23
  78  0.363  0.477  0.095-  33 1.89  38 1.90  19 2.09
  79  0.487  0.782  0.092-  38 1.84  29 1.88  23 2.21  15 2.30
  80  0.154  0.449  0.596-  39 1.96  32 1.97  24 2.07
  81  0.332  0.799  0.596-  31 1.96  36 1.99  24 2.24   7 2.25
  82  0.505  0.620  0.586-  40 1.91  35 2.02  24 2.08
  83  0.178  0.467  0.896-  37 1.91  38 1.98  19 2.06   7 2.32
  84  0.360  0.797  0.906-  29 1.86  38 1.96  21 1.97   7 2.37
  85  0.511  0.618  0.913-  38 1.94  33 1.98  23 2.03   4 2.26
  86  0.153  0.627  0.408-  36 1.83  39 1.95  24 2.02  10 2.26
  87  0.335  0.446  0.402-  32 1.89  35 1.91  24 1.93  11 2.25
  88  0.514  0.805  0.403-  31 1.92  40 1.92  24 2.14  15 2.20

  LATTYP: Found a hexagonal cell.
 ALAT       =    10.0190000534
 C/A-ratio  =     1.1196726572

  Lattice vectors:

 A1 = (  10.0190000534,   0.0000000000,   0.0000000000)
 A2 = (  -5.0095000267,   8.6767085668,   0.0000000000)
 A3 = (   0.0000000000,   0.0000000000,  11.2180004120)

Analysis of symmetry for initial positions (statically):
 Subroutine PRICEL returns:
 Original cell was already a primitive cell.

 Routine SETGRP: Setting up the symmetry group for a
 hexagonal supercell.

 Subroutine GETGRP returns: Found  1 space group operations
 (whereof  1 operations were pure point group operations)
 out of a pool of 24 trial point group operations.

The static configuration has the point symmetry C_1 .

Analysis of symmetry for dynamics (positions and initial velocities):
 Subroutine PRICEL returns:
 Original cell was already a primitive cell.

[...]

The dynamic configuration has the point symmetry C_1 .

Analysis of structural, dynamic, and magnetic symmetry:
 Subroutine PRICEL returns:
 Original cell was already a primitive cell.

 Routine SETGRP: Setting up the symmetry group for a
 hexagonal supercell.

 Subroutine GETGRP returns: Found  1 space group operations
 (whereof  1 operations were pure point group operations)
 out of a pool of 24 trial point group operations.

The magnetic configuration has the point symmetry C_1 .

 Subroutine INISYM returns: Found  1 space group operations
[...]
   4       0.009     0.010     1.533    -0.078     1.533
   5       0.012     0.012     2.934    -0.127     2.934
   6      -0.006    -0.007     2.184    -0.051     2.184
   7      -0.008    -0.008     2.216    -0.091     2.216
   8       0.005     0.005     1.881    -0.083     1.881
   9       0.002     0.002     2.707    -0.109     2.707
  10       0.030     0.031     2.094    -0.109     2.092
  11      -0.011    -0.011     2.914    -0.107     2.913
  12       0.002     0.005     0.890    -0.043     0.887
  13      -0.014    -0.012     1.970    -0.081     1.969
  14      -0.001    -0.000     2.870    -0.113     2.870
  15      -0.002    -0.002     2.496    -0.114     2.496
  16      -0.010    -0.010     2.072    -0.080     2.072
  17       0.047     0.049    12.093     0.126    12.091
  18       0.064     0.066    13.206     0.135    13.204
  19       0.056     0.058    13.652     0.129    13.650
  20       0.054     0.058    13.570     0.128    13.566
  21       0.074     0.075    13.216     0.139    13.215
  22       0.049     0.053    11.686     0.122    11.682
  23       0.029     0.032    12.019     0.113    12.016
  24       0.041     0.045    11.802     0.107    11.798
  25     164.116   164.104    97.003  -143.330    97.015
  26     160.683   160.662    91.518  -138.693    91.539
  27     158.899   158.878    92.902  -136.089    92.924
  28     161.102   161.088    96.816  -139.107    96.830
  29     159.611   159.588    98.243  -137.067    98.265
  30     160.301   160.277    96.788  -138.068    96.813
  31     160.427   160.408    96.757  -138.335    96.776
  32     161.583   161.564    98.407  -139.909    98.426
  33     161.679   161.662    99.901  -139.891    99.918
  34     161.324   161.303    95.987  -139.544    96.008
  35     159.791   159.771    96.132  -137.346    96.152
  36     160.488   160.475    95.478  -138.164    95.491
  37     160.444   160.424    97.845  -138.177    97.866
  38     160.396   160.380    99.780  -138.082    99.797
  39     159.510   159.493    96.202  -136.997    96.220
  40     162.073   162.050    98.654  -140.625    98.678
  41       1.521     1.523     5.440    -1.531     5.439
  42       2.822     2.826     7.210    -2.941     7.206
  43       1.608     1.612     7.268    -1.529     7.265
  44       1.135     1.138     5.023    -1.079     5.020
  45       2.471     2.475     8.387    -2.460     8.383
  46       2.812     2.820     8.942    -2.852     8.934
  47      -0.912    -0.910     1.503     1.084     1.501
  48       3.379     3.379    10.275    -3.411    10.274
  49       0.989     0.993     6.121    -0.854     6.117
  50       2.187     2.192     6.864    -2.233     6.860
  51       2.608     2.615     7.232    -2.704     7.225
  52       3.284     3.292    10.615    -3.299    10.607
  53       2.875     2.879     8.654    -2.917     8.650
  54       1.662     1.664     6.729    -1.611     6.727
  55       2.237     2.238     7.317    -2.256     7.315
  56       1.597     1.602     6.215    -1.578     6.210
  57       2.966     2.970     8.489    -3.047     8.485
  58       2.586     2.591     8.554    -2.598     8.549
  59       2.812     2.812     8.836    -2.820     8.836
  60       3.161     3.164     9.369    -3.206     9.366
[...]
  74       2.183     2.184     7.233    -2.182     7.232
  75       2.184     2.186     8.422    -2.113     8.420
  76       2.926     2.930     8.031    -3.016     8.027
  77       2.519     2.524     7.050    -2.607     7.045
  78       2.837     2.840     8.574    -2.878     8.571
  79       2.961     2.963     8.829    -3.024     8.828
  80       2.128     2.134     7.699    -2.103     7.693
  81       2.142     2.145     7.926    -2.088     7.922
  82       1.777     1.783     7.024    -1.736     7.018
  83       2.218     2.220     7.881    -2.188     7.879
  84       2.791     2.795     8.568    -2.826     8.563
  85       0.885     0.891     5.602    -0.778     5.596
  86       3.301     3.303     8.939    -3.403     8.938
  87       2.326     2.325     6.727    -2.399     6.728
  88       2.250     2.254     7.609    -2.256     7.605

 Dipolar hyperfine coupling parameters (MHz)
  ion      A_xx      A_yy      A_zz      A_xy      A_xz      A_yz
   1      -0.805    -0.957     1.763    -0.110     0.040     0.160
   2      -0.874    -0.661     1.535     0.113     0.595    -0.301
   3      -0.815    -0.933     1.748    -0.071     0.005     0.057
   4      -0.688    -0.640     1.328    -0.102    -0.175     0.001
   5      -0.544    -0.887     1.431    -0.007     0.008    -0.526
   6      -0.606    -0.866     1.472    -0.039    -0.117    -0.503
   7      -0.771    -0.706     1.477     0.181     0.481    -0.284
   8      -0.524    -0.877     1.402    -0.027    -0.052     0.352
   9      -0.779    -0.719     1.498    -0.154     0.444     0.222
  10      -0.845    -0.915     1.760    -0.059    -0.014     0.136
  11      -0.764    -0.761     1.525     0.088    -0.488     0.270
  12      -0.927    -0.906     1.833    -0.099    -0.030     0.005
  13      -0.622    -0.738     1.360    -0.026     0.081     0.428
  14      -0.857    -0.726     1.584    -0.122    -0.446    -0.222
  15      -0.829    -0.630     1.459    -0.160     0.401     0.211
  16      -0.726    -0.661     1.386     0.099    -0.425     0.275
  17       1.307     1.632    -2.939     0.093    -0.130     0.111
  18       1.355     1.646    -3.002    -0.077     0.080     0.033
  19       1.698     1.232    -2.930     0.102     0.130     0.017
  20       1.524     1.362    -2.886    -0.097    -0.107     0.125
  21       1.562     1.412    -2.973     0.155    -0.112     0.138
  22       1.622     1.206    -2.829     0.095     0.181    -0.131
  23       1.442     1.393    -2.834     0.114     0.111    -0.091
  24       1.518     1.330    -2.848    -0.055    -0.065     0.047
  25       0.047    -0.370     0.323    -0.612    -1.107     0.760
  26       0.725     0.223    -0.948     1.195    -0.084    -0.841
  27      -1.036     0.787     0.249    -1.468    -0.380    -1.071
  28       1.725    -0.879    -0.847     0.025    -0.419     1.061
  29      -0.061     0.355    -0.294    -1.913     0.930     0.574
  30      -0.157     0.349    -0.193    -1.822    -0.263     1.588
  31      -0.927     0.564     0.363     0.171     0.201     0.231
  32      -0.809     0.469     0.340    -0.096     1.003     1.161
  33      -1.334     0.616     0.718    -0.187    -0.184    -0.649
  34      -0.229    -1.058     1.287    -1.795     0.827     0.349
  35      -2.620     0.658     1.962    -0.006     1.331     0.413
  36       0.872    -1.542     0.670     1.055    -0.741     0.403
  37      -0.038    -1.499     1.537    -1.038     0.960     0.396
  38      -1.600     0.811     0.789    -0.950    -0.704    -0.161
  39       2.592    -2.142    -0.450    -0.152    -0.574    -1.009
  40      -1.129    -0.844     1.973    -0.293    -0.383     0.121
  41      -3.494     2.274     1.220    -4.965     0.336    -4.228
  42      -2.019    -0.233     2.252     5.525     3.284     2.726
  43       5.104    -5.213     0.109     0.482    -5.546    -1.394
  44      -0.699     0.818    -0.119     4.541    -2.765    -2.868
  45      -4.618     3.934     0.684    -4.133    -1.398     5.205
  46       6.660    -6.785     0.125    -1.738     5.142     1.568
  47      -2.639     2.478     0.161    -4.457     3.920    -3.049
  48       6.215    -7.123     0.908     0.154    -4.447    -1.082
  49      -1.114     1.956    -0.841     5.124     3.710     2.445
  50       3.627    -5.631     2.004    -0.537     4.689     0.482
  51      -4.171     0.514     3.657    -3.764    -4.374     4.017
  52      -0.894     1.300    -0.405     7.439    -1.383    -2.570
  53      -2.646     3.365    -0.719    -6.542     3.850    -3.757
  54      -3.941     2.465     1.476     4.633     3.188     4.027
  55       4.318    -5.384     1.066    -0.315    -5.033     1.236
  56      -1.416     0.531     0.885     5.849    -1.364    -6.418
  57      -2.199    -1.330     3.529    -4.803    -2.364     4.913
  58       6.837    -6.067    -0.770     0.187     3.688    -1.039
  59      -2.019     3.096    -1.077    -5.830     1.786    -3.244
  60       5.138    -5.363     0.225     0.166    -3.603     0.171
[...]
  74       2.705    -4.813     2.108    -0.639     4.160     0.629
  75      -0.338     2.771    -2.433    -5.727    -4.033     1.266
  76      -3.335     2.197     1.138     5.823    -3.515    -2.373
  77      -4.155     2.741     1.413    -6.019     2.278    -5.402
  78      -3.890     3.374     0.516     5.555     1.965     3.068
  79       7.641    -7.115    -0.526    -1.568    -5.119     0.382
  80      -3.395     2.945     0.450     5.688     0.153    -4.752
  81      -2.457     3.604    -1.147    -5.214    -1.921     3.264
  82       5.473    -6.367     0.894    -1.933     3.981     1.491
  83      -3.838     3.527     0.311    -4.381     3.008    -3.713
  84       4.074    -5.657     1.583    -1.056    -4.564     0.137
  85      -1.399     1.199     0.200     4.986     1.536     4.677
  86       3.735    -5.214     1.479     1.062     5.195    -1.536
  87      -5.535     3.356     2.179    -2.814    -0.990     5.018
  88      -2.445     2.327     0.118     5.348    -2.662    -2.798

 Total hyperfine coupling parameters after diagonalization (MHz)
 (convention: |A_zz| > |A_xx| > |A_yy|)
  ion      A_xx      A_yy      A_zz     asymmetry (A_yy - A_xx)/ A_zz
   1       0.810     0.535     3.332      -0.083
   2       1.935     1.455     4.252      -0.113
   3       0.706     0.520     3.237      -0.057
   4       0.968     0.756     2.877      -0.074
   5       2.390     1.934     4.479      -0.102
   6       1.583     1.205     3.765      -0.101
   7       1.658     1.172     3.817      -0.128
   8       1.356     0.950     3.337      -0.122
   9       2.110     1.706     4.304      -0.094
  10       1.279     1.139     3.859      -0.036
  11       2.232     1.944     4.563      -0.063
  12      -0.130     0.069     2.720       0.073
  13       1.353     1.139     3.416      -0.063
  14       2.217     1.845     4.549      -0.082
  15       1.955     1.494     4.038      -0.114
  16       1.483     1.163     3.570      -0.089
  17      13.378     9.145    13.749      -0.308
  18      14.542    10.200    14.869      -0.292
  19      14.860    10.716    15.373      -0.270
  20      14.884    10.674    15.141      -0.278
  21      14.537    10.234    14.874      -0.289
  22      12.874     8.841    13.330      -0.303
  23      13.321     9.177    13.551      -0.306
  24      13.113     8.948    13.332      -0.312
  25      96.210    96.071    98.763      -0.001
  26      91.232    90.016    93.368      -0.013
  27      93.124    90.751    94.896      -0.025
  28      96.979    94.880    98.630      -0.021
  29      98.519    95.922   100.354      -0.026
  30      96.376    94.611    99.453      -0.018
  31      96.991    95.806    97.530      -0.012
  32      98.334    96.784   100.160      -0.015
  33      99.983    98.534   101.235      -0.014
  34      96.891    93.362    97.769      -0.036
  35      96.723    93.169    98.562      -0.036
  36      95.953    93.401    97.120      -0.026
  37      98.086    95.652    99.859      -0.024
  38     100.735    97.690   100.966      -0.030
  39      96.164    93.579    98.917      -0.026
  40      97.984    97.345   100.706      -0.006
  41       4.731    -1.398    12.984      -0.472
  42       6.276     0.411    14.929      -0.393
  43       4.161     1.583    16.050      -0.161
  44       2.676     0.452    11.933      -0.186
  45       5.723     2.003    17.424      -0.213
  46       7.193     1.152    18.456      -0.327
  47      -4.531    -0.362     9.396       0.444
  48       8.789     2.991    19.043      -0.304
  49       3.924     0.484    13.942      -0.247
  50       5.050     1.094    14.434      -0.274
  51       5.068     0.464    16.144      -0.285
  52       9.362     3.227    19.230      -0.319
  53       5.698     1.489    18.765      -0.224
  54       4.721     0.199    15.262      -0.296
  55       4.932     1.645    15.369      -0.214
  56       4.513    -1.696    15.812      -0.393
  57       6.786     1.578    17.091      -0.305
  58       6.546     2.217    16.884      -0.256
  59       6.334     2.988    17.188      -0.195
  60       7.701     3.988    16.409      -0.226
[...]
  74       5.712     2.175    13.810      -0.256
  75       6.654     1.873    16.731      -0.286
  76       7.330     0.620    16.131      -0.416
  77       4.644    -0.679    17.171      -0.310
  78       7.360     1.664    16.688      -0.341
  79       5.863     1.544    19.077      -0.226
  80       6.931     0.029    16.120      -0.428
  81       5.233     2.465    16.070      -0.172
  82       6.470    -0.274    14.857      -0.454
  83       5.754     1.711    16.171      -0.250
  84       6.733     2.770    16.187      -0.245
  85       3.583    -0.310    13.514      -0.288
  86       7.221     2.731    16.862      -0.266
  87       4.738     0.344    15.100      -0.291
  88       5.917     1.587    15.311      -0.283

 stress matrix after NEB project (eV)
    -43.87888      2.61554     -1.04646
      2.64879    -44.33942      4.43311
     -1.05205      4.40992    -62.29441
  FORCES: max atom, RMS     2.778481    1.243990
  FORCE total and by dimension   11.669662    2.244452
  Stress total and by dimension   88.470856   62.294408

 total charge

[...]

 magnetization (x)

# of ion       s       p       d       tot
    1        0.001   0.000   0.000   0.002
    2        0.002   0.000   0.000   0.002
    3        0.001   0.001   0.000   0.002
    4        0.001   0.000   0.000   0.002
    5        0.002   0.000   0.000   0.003
    6        0.001   0.000   0.000   0.001
    7        0.002   0.000   0.000   0.002
    8        0.001   0.000   0.000   0.002
    9        0.002   0.000   0.000   0.002
   10        0.002   0.001   0.000   0.002
   11        0.002  -0.000   0.000   0.002
   12        0.001   0.000   0.000   0.001
   13        0.001  -0.000   0.000   0.001
   14        0.002   0.000   0.000   0.002
   15        0.002   0.000   0.000   0.002
   16        0.002  -0.000   0.000   0.001
   17        0.007   0.002   0.001   0.010
   18        0.007   0.003   0.001   0.011
   19        0.008   0.002   0.001   0.011
   20        0.008   0.002   0.001   0.011
   21        0.007   0.003   0.001   0.011
   22        0.007   0.002   0.001   0.010
   23        0.007   0.002   0.001   0.009
   24        0.007   0.002   0.001   0.010
   25        0.015   0.028   2.818   2.861
   26        0.014   0.030   2.746   2.790
   27        0.014   0.030   2.712   2.756
   28        0.015   0.029   2.755   2.800
   29        0.016   0.031   2.727   2.774
   30        0.016   0.031   2.740   2.787
   31        0.016   0.030   2.742   2.787
   32        0.016   0.031   2.768   2.815
   33        0.016   0.030   2.770   2.817
   34        0.015   0.029   2.762   2.806
   35        0.015   0.030   2.731   2.776
   36        0.015   0.029   2.742   2.786
   37        0.016   0.031   2.744   2.791
   38        0.016   0.031   2.741   2.789
   39        0.015   0.029   2.724   2.769
   40        0.015   0.028   2.779   2.822
   41        0.002   0.022   0.000   0.023
   42        0.002   0.045   0.000   0.047
   43        0.002   0.022   0.000   0.024
   44        0.001   0.016   0.000   0.017
   45        0.002   0.037   0.000   0.040
   46        0.002   0.043   0.000   0.045
   47        0.001  -0.021   0.000  -0.020
   48        0.003   0.053   0.000   0.055
   49        0.002   0.012   0.000   0.014
   50        0.002   0.033   0.000   0.035
   51        0.002   0.041   0.000   0.042
   52        0.003   0.050   0.000   0.053
   53        0.002   0.045   0.000   0.047
   54        0.002   0.024   0.000   0.025
   55        0.002   0.034   0.000   0.035
   56        0.002   0.023   0.000   0.024
   57        0.002   0.046   0.000   0.048
   58        0.002   0.039   0.000   0.041
   59        0.002   0.044   0.000   0.046
   60        0.002   0.050   0.000   0.052
[...]
   74        0.002   0.033   0.000   0.035
   75        0.002   0.032   0.000   0.035
   76        0.002   0.046   0.000   0.048
   77        0.002   0.039   0.000   0.041
   78        0.002   0.044   0.000   0.046
   79        0.002   0.046   0.000   0.048
   80        0.002   0.032   0.000   0.034
   81        0.002   0.032   0.000   0.034
   82        0.002   0.026   0.000   0.028
   83        0.002   0.033   0.000   0.036
   84        0.002   0.043   0.000   0.045
   85        0.002   0.010   0.000   0.012
   86        0.002   0.052   0.000   0.054
   87        0.002   0.035   0.000   0.037
   88        0.002   0.034   0.000   0.036
tot          0.423   2.129  44.012  46.564