 vasp.5.4.4.18Apr17-6-g9f103f2a35 (build Dec 02 2020 12:53:39) complex

 executed on             LinuxIFC date 2021.07.31  02:06:30

 INCAR:
 POTCAR:    PAW_PBE Na_pv 19Sep2006
 POTCAR:    PAW_PBE Mg_pv 13Apr2007
 POTCAR:    PAW_PBE Mn_pv 02Aug2007
 POTCAR:    PAW_PBE O 08Apr2002

 POTCAR:    PAW_PBE Na_pv 19Sep2006
   VRHFIN =Na: p6s1

   TITEL  = PAW_PBE Na_pv 19Sep2006
   POMASS =   22.990; ZVAL   =    7.000    mass and valenz
   ENMAX  =  259.561; ENMIN  =  194.671 eV

 POTCAR:    PAW_PBE Mg_pv 13Apr2007
   VRHFIN =Mg: p6s2

   TITEL  = PAW_PBE Mg_pv 13Apr2007
   POMASS =   24.305; ZVAL   =    8.000    mass and valenz
   ENMAX  =  403.929; ENMIN  =  302.947 eV

 POTCAR:    PAW_PBE Mn_pv 02Aug2007
   VRHFIN =Mn: 3p4s3d

   TITEL  = PAW_PBE Mn_pv 02Aug2007
   POMASS =   54.938; ZVAL   =   13.000    mass and valenz
   ENMAX  =  269.864; ENMIN  =  202.398 eV

 POTCAR:    PAW_PBE O 08Apr2002
   VRHFIN =O: s2p4

   TITEL  = PAW_PBE O 08Apr2002
   POMASS =   16.000; ZVAL   =    6.000    mass and valenz
   ENMAX  =  400.000; ENMIN  =  300.000 eV

 Optimization of the real space projectors (new method)

 maximal supplied QI-value         = 17.01
 optimisation between [QCUT,QGAM] = [ 10.20, 20.41] = [ 29.16,116.64] Ry
 Optimized for a Real-space Cutoff    1.30 Angstroem

   l    n(q)    QCUT    max X(q) W(low)/X(q) W(high)/X(q)  e(spline)
   1      7    10.205     4.940    0.23E-03    0.84E-03    0.11E-06
   1      7    10.205     6.253    0.40E-03    0.13E-02    0.18E-06
   0      8    10.205    37.438    0.23E-03    0.37E-03    0.42E-07
   0      8    10.205     9.606    0.16E-03    0.26E-03    0.31E-07
 Optimization of the real space projectors (new method)

[...]

   l    n(q)    QCUT    max X(q) W(low)/X(q) W(high)/X(q)  e(spline)
   1      8    10.239     3.658    0.23E-03    0.30E-03    0.98E-07
   1      8    10.239     5.612    0.32E-03    0.65E-03    0.21E-06
   2      7    10.239    55.373    0.42E-03    0.45E-03    0.65E-07
   2      7    10.239    50.863    0.43E-03    0.48E-03    0.67E-07
   0      8    10.239    79.536    0.11E-03    0.21E-03    0.56E-07
   0      8    10.239    38.668    0.96E-04    0.19E-03    0.52E-07
 Optimization of the real space projectors (new method)

 maximal supplied QI-value         = 24.76
 optimisation between [QCUT,QGAM] = [ 10.15, 20.30] = [ 28.85,115.39] Ry
 Optimized for a Real-space Cutoff    1.38 Angstroem

   l    n(q)    QCUT    max X(q) W(low)/X(q) W(high)/X(q)  e(spline)
   0      8    10.150    20.381    0.22E-03    0.32E-03    0.29E-06
   0      8    10.150    15.268    0.23E-03    0.35E-03    0.30E-06
   1      8    10.150     5.964    0.46E-03    0.53E-03    0.21E-06
   1      8    10.150     5.382    0.38E-03    0.45E-03    0.19E-06
  PAW_PBE Na_pv 19Sep2006               :
  PAW_PBE Mg_pv 13Apr2007               :
  PAW_PBE Mn_pv 02Aug2007               :
  PAW_PBE O 08Apr2002                   :

 POSCAR: Na Mg Mn  O
  positions in cartesian coordinates

 METAGGA = SCAN     LMAXTAU =  6    LMIXTAU =  F

 VTST: version 3.2, (02/03/18)

 CHAIN: initializing optimizer

 OPT: Using VASP Dynamics algorithm
 CHAIN: Read ICHAIN            0

 POSCAR: Na Mg Mn  O
  positions in cartesian coordinates

 ion  position               nearest neighbor table
   1  0.865  0.577  0.245-  66 2.26  34 2.88
   2  0.567  0.960  0.750-  59 2.31  49 2.34  46 2.37  29 2.78  31 2.81
   3  0.253  0.630  0.754-  84 2.29  83 2.29
   4  0.516  0.437  0.750-  45 2.26  82 2.31  85 2.35  48 2.36  33 2.77  35 2.83
   5  0.549  0.124  0.256-  62 2.22  52 2.26  43 2.36
   6  0.329  0.781  0.248-  51 2.22  42 2.32  86 2.33  77 2.36
   7  0.828  0.411  0.741-  68 2.15  57 2.28  71 2.30  28 2.92
   8  0.244  0.113  0.752-  47 2.25  48 2.31  45 2.34  44 2.35
   9  0.739  0.959  0.249-
  10  0.050  0.936  0.237-  67 2.26  54 2.29  25 2.70
  11  0.549  0.599  0.254-  87 2.28  78 2.31
  12  0.053  0.786  0.761-  72 2.18  47 2.28  73 2.34
  13  0.832  0.912  0.744-  69 2.18  56 2.24  59 2.33  40 2.96
  14  0.055  0.276  0.754-  60 2.27  61 2.37  80 2.38
  15  0.022  0.394  0.243-  55 2.15  64 2.27  37 2.85
  16  0.346  0.272  0.253-  87 2.29  50 2.31  41 2.37
  17  0.714  0.273  0.997-  53 1.91  66 2.01  43 2.06  49 2.07  71 2.09  60 2.11  26 2.82  29 2.83

  18  0.391  0.113  0.497-  52 2.01  46 2.04  45 2.07  44 2.07  51 2.09  50 2.09  36 2.77  28 2.84

[...]

  24  0.381  0.609  0.500-  88 1.95  87 2.01  86 2.03  80 2.04  81 2.04  82 2.18  39 2.76  32 2.85

  25  0.053  0.941  0.996-  47 1.87  54 1.92  72 1.94  67 1.95  61 1.96  41 1.97  10 2.70  23 2.83
                            21 2.84  34 2.86  26 2.92  30 2.97
  26  0.389  0.111  0.000-  49 1.85  42 1.87  48 1.88  41 1.94  43 1.94  47 2.01  17 2.82  29 2.84
                            33 2.86  25 2.92
  27  0.050  0.957  0.504-  58 1.85  63 1.88  50 1.89  69 1.89  76 1.97  44 2.00  32 2.81  40 2.86
                            36 2.97
  28  0.718  0.283  0.504-  68 1.85  75 1.90  46 1.90  62 1.95  52 2.03  57 2.03  20 2.77  18 2.84
                            35 2.87   7 2.92  31 2.93  39 3.00
  29  0.553  0.947  0.998-  49 1.85  53 1.87  84 1.89  59 1.90  42 2.00  79 2.04   2 2.78  17 2.83
                            26 2.84  38 2.87  30 2.89
  30  0.886  0.116  0.994-  59 1.86  55 1.88  60 1.90  61 1.94  54 1.98  53 2.04  19 2.81  29 2.89
                            37 2.92  25 2.97
  31  0.559  0.945  0.500-  56 1.84  46 1.85  81 1.89  51 1.91  88 1.96  62 2.01  20 2.77   2 2.81
                            36 2.87  40 2.88  28 2.93
  32  0.217  0.281  0.505-  58 1.89  80 1.89  64 1.90  50 1.93  45 1.93  87 2.04  27 2.81  24 2.85
                            35 2.89  39 2.92
  33  0.542  0.440  0.996-  85 1.86  78 1.89  48 1.92  65 1.98  71 1.99  43 2.02   4 2.77  38 2.85
                            26 2.86  34 2.93
  34  0.880  0.612  0.989-  71 1.84  73 1.91  72 1.92  65 1.95  66 1.96  67 1.98  23 2.84  37 2.85
                            25 2.86   1 2.88  33 2.93
  35  0.550  0.445  0.500-  82 1.87  68 1.91  87 1.95  52 1.98  45 1.98  74 2.01   4 2.83  28 2.87
                            40 2.87  32 2.89
  36  0.229  0.794  0.504-  51 1.86  44 1.88  76 1.92  81 1.97  70 2.00  86 2.02  18 2.77  31 2.87
                            39 2.88  27 2.97
  37  0.049  0.453  0.993-  73 1.89  83 1.90  77 1.91  55 1.92  66 1.93  60 1.98  21 2.80  34 2.85
                            15 2.85  30 2.92  38 2.97
  38  0.390  0.617  0.008-  78 1.88  84 1.93  79 1.93  85 1.95  77 1.97  83 1.99  33 2.85  29 2.87
                            37 2.97
  39  0.063  0.463  0.512-  80 1.86  86 1.90  70 1.91  75 1.95  57 1.96  64 1.98  24 2.76  22 2.83
                            36 2.88  32 2.92  28 3.00
  40  0.721  0.776  0.505-  74 1.87  69 1.87  56 1.88  82 1.89  63 1.98  88 2.02  27 2.86  35 2.87
                            31 2.88  13 2.96
  41  0.221  0.107  0.089-  26 1.94  25 1.97  19 2.04  16 2.37
  42  0.383  0.949  0.089-  26 1.87  21 1.95  29 2.00   6 2.32
  43  0.544  0.276  0.098-  26 1.94  33 2.02  17 2.06   5 2.36
  44  0.213  0.943  0.597-  36 1.88  27 2.00  18 2.07   8 2.35
  45  0.381  0.283  0.596-  32 1.93  35 1.98  18 2.07   4 2.26   8 2.34
  46  0.565  0.106  0.585-  31 1.85  28 1.90  18 2.04   2 2.37
  47  0.214  0.953  0.902-  25 1.87  26 2.01  21 2.12   8 2.25  12 2.28
  48  0.386  0.267  0.909-  26 1.88  33 1.92  19 2.17   8 2.31   4 2.36
  49  0.532  0.092  0.909-  26 1.85  29 1.85  17 2.07   2 2.34
  50  0.207  0.115  0.411-  27 1.89  32 1.93  18 2.09  16 2.31
  51  0.392  0.931  0.408-  36 1.86  31 1.91  18 2.09   6 2.22
  52  0.554  0.286  0.399-  35 1.98  18 2.01  28 2.03   5 2.26
  53  0.707  0.108  0.087-  29 1.87  17 1.91  30 2.04
  54  0.904  0.959  0.090-  25 1.92  30 1.98  23 2.00  10 2.29
  55  0.036  0.283  0.083-  30 1.88  37 1.92  19 1.93  15 2.15
  56  0.709  0.934  0.585-  31 1.84  40 1.88  20 2.07  13 2.24
  57  0.895  0.292  0.599-  39 1.96  20 1.98  28 2.03   7 2.28
  58  0.061  0.117  0.594-  27 1.85  32 1.89  20 2.17
  59  0.722  0.968  0.906-  30 1.86  29 1.90  23 2.15   2 2.31  13 2.33
  60  0.895  0.277  0.898-  30 1.90  37 1.98  17 2.11  14 2.27
  61  0.037  0.096  0.900-  30 1.94  25 1.96  19 2.18  14 2.37
  62  0.705  0.123  0.397-  28 1.95  31 2.01  20 2.05   5 2.22
  63  0.888  0.949  0.414-  27 1.88  40 1.98  20 2.03
  64  0.069  0.302  0.413-  32 1.90  39 1.98  20 2.07  15 2.27
  65  0.715  0.602  0.089-  34 1.95  33 1.98  23 2.03
  66  0.885  0.450  0.085-  37 1.93  34 1.96  17 2.01   1 2.26
  67  0.038  0.773  0.093-  25 1.95  34 1.98  21 2.01  10 2.26
  68  0.700  0.428  0.594-  28 1.85  35 1.91   7 2.15
  69  0.889  0.806  0.599-  40 1.87  27 1.89  13 2.18  22 2.20
  70  0.060  0.624  0.600-  39 1.91  22 2.00  36 2.00
  71  0.719  0.457  0.905-  34 1.84  33 1.99  17 2.09   7 2.30
  72  0.895  0.780  0.897-  34 1.92  25 1.94  23 2.09  12 2.18
  73  0.037  0.603  0.900-  37 1.89  34 1.91  21 2.12  12 2.34
  74  0.724  0.622  0.413-  40 1.87  22 1.98  35 2.01
  75  0.889  0.437  0.417-  28 1.90  39 1.95  22 2.03
  76  0.077  0.807  0.410-  36 1.92  27 1.97  22 2.05
  77  0.210  0.597  0.095-  37 1.91  38 1.97  21 2.03   6 2.36
  78  0.399  0.460  0.094-  38 1.88  33 1.89  19 2.07  11 2.31
  79  0.545  0.780  0.106-  38 1.93  29 2.04  23 2.13
  80  0.209  0.436  0.595-  39 1.86  32 1.89  24 2.04  14 2.38
  81  0.398  0.792  0.593-  31 1.89  36 1.97  24 2.04
  82  0.570  0.608  0.594-  35 1.87  40 1.89  24 2.18   4 2.31
  83  0.218  0.464  0.907-  37 1.90  38 1.99  19 2.10   3 2.29
  84  0.402  0.779  0.909-  29 1.89  38 1.93  21 2.15   3 2.29
  85  0.542  0.600  0.911-  33 1.86  38 1.95  23 2.13   4 2.35
  86  0.210  0.616  0.408-  39 1.90  36 2.02  24 2.03   6 2.33
  87  0.389  0.445  0.402-  35 1.95  24 2.01  32 2.04  11 2.28  16 2.29
  88  0.550  0.774  0.409-  24 1.95  31 1.96  40 2.02

  LATTYP: Found a hexagonal cell.
 ALAT       =    10.0190000534
 C/A-ratio  =     1.1196726572

  Lattice vectors:

 A1 = (  10.0190000534,   0.0000000000,   0.0000000000)
 A2 = (  -5.0095000267,   8.6767085668,   0.0000000000)
 A3 = (   0.0000000000,   0.0000000000,  11.2180004120)

Analysis of symmetry for initial positions (statically):
 Subroutine PRICEL returns:
 Original cell was already a primitive cell.

 Routine SETGRP: Setting up the symmetry group for a
 hexagonal supercell.

 Subroutine GETGRP returns: Found  1 space group operations
 (whereof  1 operations were pure point group operations)
 out of a pool of 24 trial point group operations.

The static configuration has the point symmetry C_1 .

Analysis of symmetry for dynamics (positions and initial velocities):
 Subroutine PRICEL returns:
 Original cell was already a primitive cell.

[...]

The dynamic configuration has the point symmetry C_1 .

Analysis of structural, dynamic, and magnetic symmetry:
 Subroutine PRICEL returns:
 Original cell was already a primitive cell.

 Routine SETGRP: Setting up the symmetry group for a
 hexagonal supercell.

 Subroutine GETGRP returns: Found  1 space group operations
 (whereof  1 operations were pure point group operations)
 out of a pool of 24 trial point group operations.

The magnetic configuration has the point symmetry C_1 .

[...]
   4       0.003     0.004     0.757    -0.041     0.755
   5       0.003     0.003     2.773    -0.094     2.773
   6       0.001     0.001     2.030    -0.070     2.030
   7      -0.005    -0.005     2.399    -0.092     2.400
   8       0.001     0.001     2.821    -0.084     2.821
   9      -0.019    -0.017     1.488    -0.079     1.487
  10       0.001     0.002     0.617    -0.048     0.616
  11      -0.003    -0.002     2.566    -0.109     2.565
  12       0.002     0.001     3.367    -0.100     3.368
  13       0.027     0.026     3.512    -0.125     3.513
  14      -0.000     0.000     3.138    -0.097     3.138
  15       0.010     0.010     1.270    -0.060     1.271
  16       0.003     0.003     2.592    -0.116     2.592
  17       0.066     0.068    13.315     0.146    13.313
  18       0.055     0.058    12.531     0.133    12.528
  19       0.057     0.061    13.033     0.119    13.029
  20       0.055     0.057    11.741     0.113    11.738
  21       0.039     0.042    11.960     0.128    11.957
  22       0.042     0.044    12.958     0.125    12.955
  23       0.032     0.035    11.869     0.105    11.866
  24       0.048     0.049    12.210     0.134    12.209
  25     160.801   160.785    93.962  -139.017    93.979
  26     160.431   160.402    95.390  -138.222    95.419
  27     159.809   159.792    97.721  -137.293    97.738
  28     161.506   161.493    95.194  -139.817    95.207
  29     160.188   160.167    97.839  -137.845    97.860
  30     161.262   161.248    96.446  -139.391    96.461
  31     159.322   159.297    95.732  -136.791    95.757
  32     161.216   161.199    96.914  -139.356    96.931
  33     161.660   161.640   100.969  -139.923   100.988
  34     160.504   160.477    94.341  -138.535    94.368
  35     162.311   162.288    98.396  -140.859    98.419
  36     161.342   161.326    96.083  -139.597    96.099
  37     160.819   160.796    95.860  -138.818    95.883
  38     162.335   162.311    98.992  -140.693    99.016
  39     160.946   160.929    95.145  -138.889    95.162
  40     160.797   160.783    99.241  -138.548    99.255
  41       1.292     1.292     5.087    -1.265     5.087
  42       1.884     1.887     5.980    -1.908     5.977
  43       1.938     1.942     8.625    -1.821     8.621
  44       2.291     2.296     8.051    -2.274     8.046
  45       1.662     1.665     6.648    -1.617     6.645
  46       3.353     3.360     9.395    -3.449     9.388
  47       2.325     2.326     7.756    -2.324     7.755
  48       3.202     3.206     8.853    -3.297     8.848
  49       3.301     3.310     9.739    -3.379     9.730
  50       2.582     2.584     7.415    -2.644     7.413
  51       2.440     2.439     7.755    -2.454     7.757
  52       1.132     1.139     6.491    -1.012     6.484
  53       1.975     1.979     7.639    -1.925     7.635
  54       2.055     2.058     6.480    -2.080     6.477
  55       2.412     2.416     7.632    -2.435     7.629
  56       3.677     3.684     7.914    -3.921     7.906
  57       0.393     0.393     4.459    -0.263     4.458
  58       2.900     2.906     8.630    -2.969     8.624
  59       3.086     3.087     7.744    -3.224     7.744
  60       1.528     1.532     6.463    -1.480     6.459
[...]
  74       1.917     1.921     7.168    -1.886     7.164
  75       1.928     1.932     7.401    -1.882     7.398
  76       1.487     1.490     5.682    -1.466     5.679
  77       2.063     2.067     7.650    -2.034     7.646
  78       2.850     2.855     8.482    -2.910     8.477
  79       2.556     2.564     9.285    -2.515     9.278
  80       3.233     3.239     8.553    -3.360     8.548
  81       1.798     1.798     5.702    -1.831     5.703
  82       3.380     3.379    10.321    -3.421    10.322
  83       1.069     1.073     5.118    -1.012     5.115
  84       3.168     3.172     8.986    -3.238     8.981
  85       2.377     2.385     9.137    -2.330     9.128
  86       2.173     2.174     8.403    -2.108     8.402
  87       1.649     1.650     7.481    -1.542     7.481
  88       1.592     1.595     6.808    -1.511     6.804

 Dipolar hyperfine coupling parameters (MHz)
  ion      A_xx      A_yy      A_zz      A_xy      A_xz      A_yz
   1      -0.617    -0.783     1.400    -0.004    -0.039    -0.131
   2      -0.911    -0.991     1.902     0.004    -0.020     0.046
   3      -0.733    -0.675     1.407     0.165     0.364    -0.201
   4      -0.951    -0.991     1.942     0.039     0.056    -0.019
   5      -0.875    -0.763     1.638    -0.086     0.469     0.230
   6      -0.727    -0.759     1.486     0.100    -0.337     0.224
   7      -0.555    -0.850     1.405     0.073    -0.046     0.520
   8      -0.779    -0.686     1.465     0.138     0.471    -0.255
   9      -0.594    -0.874     1.467     0.022     0.046    -0.424
  10      -0.951    -0.997     1.948     0.040    -0.027     0.040
  11      -0.942    -0.782     1.724    -0.096     0.511     0.234
  12      -0.880    -0.755     1.635    -0.081    -0.523    -0.221
  13      -0.574    -0.945     1.518     0.027    -0.068     0.493
  14      -0.840    -0.685     1.526    -0.105    -0.563    -0.265
  15      -0.903    -0.847     1.751     0.064    -0.007     0.097
  16      -0.833    -0.666     1.499     0.133    -0.409     0.194
  17       1.222     1.797    -3.019    -0.003    -0.020    -0.133
  18       1.516     1.379    -2.895    -0.074    -0.001    -0.065
  19       1.639     1.261    -2.900    -0.018     0.005     0.090
  20       1.435     1.482    -2.917    -0.024     0.008     0.022
  21       1.434     1.461    -2.895     0.092     0.132     0.057
  22       1.595     1.267    -2.862    -0.084     0.186     0.001
  23       1.315     1.521    -2.836     0.078    -0.156     0.036
  24       1.392     1.558    -2.950     0.109    -0.091    -0.066
  25       0.159     0.444    -0.603     0.046     0.787     0.427
  26      -0.486    -0.134     0.620     2.024     0.099    -0.379
  27      -0.963     0.953     0.010     0.029     0.856    -0.268
  28       1.170    -1.482     0.312    -0.541     0.850    -1.393
  29      -0.556    -0.417     0.973    -0.682    -0.621     0.109
  30       0.189    -0.594     0.405     0.130    -0.410    -1.411
  31       0.393    -1.756     1.363     0.954    -1.180     0.657
  32      -0.453    -0.084     0.537     1.608     0.001     0.983
  33       0.598    -2.034     1.436     0.793     0.336    -0.353
  34       0.186    -0.592     0.407    -0.945    -0.200     0.723
  35       1.271    -0.968    -0.303    -0.081    -0.279    -1.270
  36      -1.914     2.221    -0.307     0.437     2.735     0.699
  37      -0.722     0.498     0.224    -0.084    -0.569     0.573
  38       0.086     0.613    -0.699     0.404    -0.605     0.224
  39      -1.294     0.375     0.919     1.679    -0.118     1.137
  40       0.509    -2.340     1.831    -0.475    -0.734    -1.414
  41      -2.533     0.490     2.043    -4.142     1.793    -4.231
  42      -1.769    -0.199     1.968     3.384     2.767     4.235
  43       4.934    -5.360     0.426    -0.183    -5.353    -2.148
  44      -3.179     3.293    -0.113     5.271    -0.120    -4.361
  45      -2.278     1.316     0.962    -4.440    -1.398     4.482
  46       5.580    -7.387     1.807     2.270     5.846     0.130
  47      -3.755     3.632     0.122    -4.857     3.966    -2.302
  48       4.399    -6.064     1.665     1.476    -5.258    -1.144
  49      -3.002     2.444     0.558     7.253     2.161     4.474
  50       4.326    -5.443     1.117    -0.133     5.372    -0.791
  51      -2.947     4.012    -1.065    -5.404    -0.002     4.421
  52      -3.706     3.531     0.176     3.923    -3.025    -4.625
  53      -2.356     1.333     1.023    -4.724     1.445    -4.876
  54      -2.105     1.824     0.281     5.091     1.904     3.026
  55       6.042    -6.558     0.516     0.841    -4.470    -0.680
  56      -3.416     0.567     2.850     5.236    -3.800    -3.655
  57      -3.547     0.527     3.020    -3.318    -3.705     3.993
  58       5.883    -6.713     0.829    -1.377     4.516    -0.136
  59      -4.049     3.614     0.435    -5.418     2.786    -4.080
  60       6.479    -6.659     0.181     0.736    -5.205     0.976
[...]
  74       3.840    -4.466     0.626    -1.231     5.051    -1.509
  75      -2.038     2.609    -0.570    -5.965    -1.091     2.145
  76      -4.392     4.641    -0.248     3.791    -2.902    -3.533
  77      -4.040     4.113    -0.073    -5.127     0.527    -4.530
  78      -1.680     1.414     0.267     6.163     4.009     2.758
  79       6.100    -5.693    -0.408    -2.072    -3.925    -1.401
  80      -2.475     1.490     0.985     6.267    -2.712    -2.955
  81      -4.671     2.344     2.327    -3.569    -1.336     4.653
  82       6.831    -7.719     0.888    -0.721     5.965    -1.215
  83      -4.270     3.817     0.453    -3.804     2.273    -4.140
  84       6.150    -6.167     0.017    -0.650    -4.990     1.148
  85      -0.353    -0.230     0.583     7.213     4.192     5.350
  86       6.215    -5.373    -0.842    -0.498     5.133     1.833
  87      -3.222     3.159     0.063    -3.729    -3.259     2.491
  88      -2.080     0.738     1.342     3.836    -2.625    -4.006

 Total hyperfine coupling parameters after diagonalization (MHz)
 (convention: |A_zz| > |A_xx| > |A_yy|)
  ion      A_xx      A_yy      A_zz     asymmetry (A_yy - A_xx)/ A_zz
   1       1.017     0.843     3.044      -0.057
   2       0.130     0.049     2.943      -0.028
   3       2.043     1.639     4.063      -0.100
   4      -0.261    -0.172     2.698       0.033
   5       2.057     1.749     4.514      -0.068
   6       1.384     1.121     3.585      -0.074
   7       1.859     1.420     3.919      -0.112
   8       2.232     1.827     4.402      -0.092
   9       0.895     0.536     3.030      -0.118
  10      -0.405    -0.311     2.565       0.037
  11       1.829     1.466     4.401      -0.082
  12       2.653     2.328     5.124      -0.063
  13       2.941     2.470     5.128      -0.092
  14       2.505     2.094     4.814      -0.085
  15       0.463     0.325     3.025      -0.046
  16       1.999     1.603     4.173      -0.095
  17      14.535    10.290    15.114      -0.281
  18      13.876     9.632    14.077      -0.301
  19      14.291    10.127    14.669      -0.284
  20      13.163     8.821    13.230      -0.328
  21      13.313     9.057    13.502      -0.315
  22      14.202    10.085    14.577      -0.282
  23      13.161     9.024    13.412      -0.308
  24      13.549     9.256    13.824      -0.311
  25      94.293    92.810    94.833      -0.016
  26      96.035    93.041    97.181      -0.031
  27      98.159    96.266    98.788      -0.019
  28      95.322    92.964    97.335      -0.024
  29      97.840    96.614    99.126      -0.012
  30      96.534    94.860    97.989      -0.017
  31      96.022    93.338    97.910      -0.027
  32      97.178    94.869    98.745      -0.023
  33     101.737    98.684   102.544      -0.030
  34      94.490    92.996    95.620      -0.016
  35      99.051    96.453    99.752      -0.026
  36      97.224    92.137    98.936      -0.051
  37      95.837    94.872    96.938      -0.010
  38      99.294    97.899    99.855      -0.014
  39      95.503    92.675    97.309      -0.029
  40      99.726    96.347   101.691      -0.033
  41       3.396    -0.513    12.377      -0.316
  42       3.229     1.444    13.258      -0.135
  43       6.548     2.127    17.188      -0.257
  44       6.784     1.187    16.168      -0.346
  45       4.828     0.981    14.126      -0.272
  46       7.214     1.516    19.436      -0.293
  47       6.941     0.562    15.763      -0.405
  48       6.447     2.548    17.549      -0.222
  49       7.817     1.620    19.752      -0.314
  50       4.642     1.832    15.765      -0.178
  51       6.031     0.908    16.332      -0.314
  52       3.434     0.793    15.225      -0.173
  53       5.708     1.557    15.640      -0.265
  54       4.909     0.876    13.646      -0.296
  55       5.660     0.988    16.238      -0.288
  56       6.325     0.735    16.660      -0.336
  57       2.104    -1.258    12.529      -0.268
  58       6.871     1.742    17.259      -0.297
  59       5.485     0.826    16.920      -0.275
  60       4.050    -0.547    15.874      -0.290
[...]
  74       4.226     2.280    14.987      -0.130
  75       6.131     1.262    14.799      -0.329
  76       3.710    -0.603    13.931      -0.310
  77       5.836     0.725    16.377      -0.312
  78       6.565     1.600    17.267      -0.288
  79       8.026     2.462    17.346      -0.321
  80       7.375     1.454    16.815      -0.352
  81       3.962    -0.516    13.663      -0.328
  82       7.601     2.434    20.931      -0.247
  83       2.795    -0.743    13.292      -0.266
  84       6.336     2.601    18.005      -0.207
  85       5.536     1.501    20.348      -0.198
  86       6.008     1.869    17.329      -0.239
  87       6.332     1.737    14.373      -0.320
  88       4.290     2.040    14.082      -0.160

 stress matrix after NEB project (eV)
    -47.19848     -3.16721     -1.21773
     -3.17057    -43.36013      4.26288
     -1.19259      4.26133    -61.78934
  FORCES: max atom, RMS     2.584982    1.132024
  FORCE total and by dimension   10.619327    1.977669
  Stress total and by dimension   89.359052   61.789339

 total charge

[...]

 magnetization (x)

# of ion       s       p       d       tot
    1        0.001   0.001   0.000   0.002
    2        0.001   0.000   0.000   0.001
    3        0.002   0.000   0.000   0.002
    4        0.001   0.000   0.000   0.001
    5        0.002   0.000   0.000   0.002
    6        0.001   0.000   0.000   0.002
    7        0.002   0.000   0.000   0.002
    8        0.002   0.000   0.000   0.002
    9        0.001  -0.000   0.000   0.001
   10        0.001   0.000   0.000   0.001
   11        0.002   0.000   0.000   0.002
   12        0.002   0.000   0.000   0.003
   13        0.002   0.001   0.000   0.003
   14        0.002   0.000   0.000   0.002
   15        0.001   0.000   0.000   0.001
   16        0.002   0.000   0.000   0.002
   17        0.007   0.003   0.001   0.011
   18        0.007   0.002   0.001   0.010
   19        0.007   0.003   0.001   0.011
   20        0.007   0.002   0.001   0.010
   21        0.007   0.002   0.001   0.009
   22        0.007   0.002   0.001   0.010
   23        0.007   0.002   0.001   0.010
   24        0.007   0.002   0.001   0.010
   25        0.014   0.029   2.753   2.797
   26        0.015   0.030   2.741   2.786
   27        0.016   0.031   2.730   2.776
   28        0.015   0.030   2.766   2.810
   29        0.015   0.029   2.739   2.784
   30        0.015   0.030   2.760   2.805
   31        0.015   0.031   2.722   2.767
   32        0.015   0.029   2.758   2.803
   33        0.016   0.030   2.769   2.816
   34        0.014   0.029   2.745   2.789
   35        0.015   0.029   2.783   2.827
   36        0.015   0.028   2.762   2.805
   37        0.015   0.031   2.752   2.798
   38        0.016   0.030   2.780   2.826
   39        0.015   0.031   2.753   2.799
   40        0.016   0.030   2.749   2.796
   41        0.001   0.018   0.000   0.020
   42        0.002   0.029   0.000   0.030
   43        0.002   0.027   0.000   0.030
   44        0.002   0.034   0.000   0.036
   45        0.002   0.024   0.000   0.025
   46        0.002   0.053   0.000   0.055
   47        0.002   0.035   0.000   0.037
   48        0.002   0.050   0.000   0.053
   49        0.002   0.051   0.000   0.054
   50        0.002   0.040   0.000   0.042
   51        0.002   0.037   0.000   0.039
   52        0.002   0.014   0.000   0.016
   53        0.002   0.029   0.000   0.031
   54        0.002   0.031   0.000   0.033
   55        0.002   0.037   0.000   0.039
   56        0.002   0.060   0.000   0.061
   57        0.002   0.001   0.000   0.003
   58        0.002   0.045   0.000   0.047
   59        0.002   0.049   0.000   0.051
   60        0.002   0.021   0.000   0.023
[...]
   74        0.002   0.028   0.000   0.030
   75        0.002   0.028   0.000   0.030
   76        0.002   0.021   0.000   0.023
   77        0.002   0.030   0.000   0.032
   78        0.002   0.044   0.000   0.046
   79        0.003   0.038   0.000   0.041
   80        0.002   0.051   0.000   0.053
   81        0.001   0.027   0.000   0.028
   82        0.003   0.052   0.000   0.055
   83        0.002   0.014   0.000   0.015
   84        0.002   0.050   0.000   0.052
   85        0.003   0.035   0.000   0.037
   86        0.002   0.032   0.000   0.034
   87        0.002   0.023   0.000   0.025
   88        0.002   0.023   0.000   0.025
tot          0.419   2.087  44.073  46.579