 vasp.5.4.4.18Apr17-6-g9f103f2a35 (build Dec 02 2020 12:53:39) complex

 executed on             LinuxIFC date 2021.08.05  11:49:49

 INCAR:
 POTCAR:    PAW_PBE Na_pv 19Sep2006
 POTCAR:    PAW_PBE Mg_pv 13Apr2007
 POTCAR:    PAW_PBE Mn_pv 02Aug2007
 POTCAR:    PAW_PBE O 08Apr2002

 POTCAR:    PAW_PBE Na_pv 19Sep2006
   VRHFIN =Na: p6s1

   TITEL  = PAW_PBE Na_pv 19Sep2006
   POMASS =   22.990; ZVAL   =    7.000    mass and valenz
   ENMAX  =  259.561; ENMIN  =  194.671 eV

 POTCAR:    PAW_PBE Mg_pv 13Apr2007
   VRHFIN =Mg: p6s2

   TITEL  = PAW_PBE Mg_pv 13Apr2007
   POMASS =   24.305; ZVAL   =    8.000    mass and valenz
   ENMAX  =  403.929; ENMIN  =  302.947 eV

 POTCAR:    PAW_PBE Mn_pv 02Aug2007
   VRHFIN =Mn: 3p4s3d

   TITEL  = PAW_PBE Mn_pv 02Aug2007
   POMASS =   54.938; ZVAL   =   13.000    mass and valenz
   ENMAX  =  269.864; ENMIN  =  202.398 eV

 POTCAR:    PAW_PBE O 08Apr2002
   VRHFIN =O: s2p4

   TITEL  = PAW_PBE O 08Apr2002
   POMASS =   16.000; ZVAL   =    6.000    mass and valenz
   ENMAX  =  400.000; ENMIN  =  300.000 eV

 Optimization of the real space projectors (new method)

 maximal supplied QI-value         = 17.01
 optimisation between [QCUT,QGAM] = [ 10.20, 20.41] = [ 29.16,116.64] Ry
 Optimized for a Real-space Cutoff    1.30 Angstroem

   l    n(q)    QCUT    max X(q) W(low)/X(q) W(high)/X(q)  e(spline)
   1      7    10.205     4.940    0.23E-03    0.84E-03    0.11E-06
   1      7    10.205     6.253    0.40E-03    0.13E-02    0.18E-06
   0      8    10.205    37.438    0.23E-03    0.37E-03    0.42E-07
   0      8    10.205     9.606    0.16E-03    0.26E-03    0.31E-07
 Optimization of the real space projectors (new method)

[...]

   l    n(q)    QCUT    max X(q) W(low)/X(q) W(high)/X(q)  e(spline)
   1      8    10.239     3.658    0.23E-03    0.30E-03    0.98E-07
   1      8    10.239     5.612    0.32E-03    0.65E-03    0.21E-06
   2      7    10.239    55.373    0.42E-03    0.45E-03    0.65E-07
   2      7    10.239    50.863    0.43E-03    0.48E-03    0.67E-07
   0      8    10.239    79.536    0.11E-03    0.21E-03    0.56E-07
   0      8    10.239    38.668    0.96E-04    0.19E-03    0.52E-07
 Optimization of the real space projectors (new method)

 maximal supplied QI-value         = 24.76
 optimisation between [QCUT,QGAM] = [ 10.15, 20.30] = [ 28.85,115.39] Ry
 Optimized for a Real-space Cutoff    1.38 Angstroem

   l    n(q)    QCUT    max X(q) W(low)/X(q) W(high)/X(q)  e(spline)
   0      8    10.150    20.381    0.22E-03    0.32E-03    0.29E-06
   0      8    10.150    15.268    0.23E-03    0.35E-03    0.30E-06
   1      8    10.150     5.964    0.46E-03    0.53E-03    0.21E-06
   1      8    10.150     5.382    0.38E-03    0.45E-03    0.19E-06
  PAW_PBE Na_pv 19Sep2006               :
  PAW_PBE Mg_pv 13Apr2007               :
  PAW_PBE Mn_pv 02Aug2007               :
  PAW_PBE O 08Apr2002                   :

 POSCAR: Na Mg Mn  O
  positions in cartesian coordinates

 METAGGA = SCAN     LMAXTAU =  6    LMIXTAU =  F

 VTST: version 3.2, (02/03/18)

 CHAIN: initializing optimizer

 OPT: Using VASP Dynamics algorithm
 CHAIN: Read ICHAIN            0

 POSCAR: Na Mg Mn  O
  positions in cartesian coordinates

 ion  position               nearest neighbor table
   1  0.508  0.183  0.247-  53 2.19  62 2.34  29 2.83  31 2.93
   2  0.299  0.175  0.755-  47 2.20  49 2.23
   3  0.815  0.722  0.745-  73 2.22  70 2.27  71 2.30  68 2.36  34 2.95
   4  0.975  0.149  0.743-  69 2.34  44 2.34  27 2.83  25 2.90
   5  0.659  0.595  0.246-  75 2.24  66 2.32  52 2.33  43 2.35
   6  0.799  0.959  0.237-  65 2.14  67 2.30
   7  0.628  0.316  0.741-  46 2.23  56 2.35
   8  0.976  0.456  0.741-  58 2.19  61 2.35
   9  0.001  0.695  0.262-  86 2.17  77 2.34  39 2.77
  10  0.326  0.499  0.258-  52 2.29  43 2.37
  11  0.157  0.127  0.245-  42 2.19  51 2.29  76 2.31  41 2.34
  12  0.612  0.991  0.762-  59 2.20  82 2.28
  13  0.170  0.844  0.756-  84 2.22  83 2.32
  14  0.464  0.636  0.761-  48 2.23  45 2.27  33 2.76  35 2.94
  15  0.415  0.834  0.264-  87 2.24  79 2.27  88 2.34
  16  0.949  0.324  0.255-  63 2.26  54 2.29
  17  0.638  0.476  0.007-  53 1.97  43 2.00  71 2.06  66 2.09  60 2.12  49 2.13  26 2.84  33 2.86

  18  0.316  0.342  0.505-  45 1.98  46 2.01  52 2.02  50 2.12  44 2.12  51 2.16  35 2.79  32 2.84

[...]

  24  0.309  0.831  0.524-  80 1.98  81 1.98  82 2.01  86 2.11  88 2.16  87 2.17  39 2.84  32 2.86

  25  0.978  0.145  0.001-  67 1.88  41 1.92  47 1.95  72 1.96  61 1.97  54 1.98  34 2.85  26 2.89
                             4 2.90  30 2.94
  26  0.311  0.311  0.002-  49 1.88  48 1.89  41 1.94  42 1.95  43 1.98  47 1.99  17 2.84  21 2.85
                            29 2.88  25 2.89  33 2.94
  27  0.973  0.164  0.491-  50 1.86  76 1.90  58 1.93  69 1.93  44 1.94  63 1.96   4 2.83  20 2.85
                            40 2.92  36 2.92  32 2.94
  28  0.646  0.500  0.503-  62 1.81  68 1.85  75 1.91  52 1.96  46 1.97  57 1.98  31 2.88  35 2.88
                            39 2.92
  29  0.467  0.135  0.998-  84 1.84  79 1.90  59 1.91  49 1.96  53 1.98  42 1.99  21 2.77   1 2.83
                            38 2.84  23 2.85  26 2.88  30 2.91
  30  0.802  0.307  0.996-  60 1.88  53 1.90  59 1.91  54 1.94  61 1.97  55 2.10  23 2.76  29 2.91
                            25 2.94  37 2.97
  31  0.472  0.168  0.507-  81 1.85  88 1.88  56 1.94  51 1.95  46 1.96  62 1.98  36 2.86  28 2.88
                             1 2.93  40 2.96
  32  0.149  0.503  0.501-  58 1.90  64 1.91  87 1.92  50 1.99  80 1.99  45 2.01  18 2.84  39 2.85
                            24 2.86  35 2.86  27 2.94
  33  0.483  0.649  0.006-  85 1.84  43 1.88  78 1.92  48 1.97  65 1.97  71 2.02  14 2.76  19 2.85
                            17 2.86  38 2.91  34 2.92  26 2.94
  34  0.819  0.817  0.995-  66 1.90  71 1.91  65 1.91  73 1.91  67 1.92  72 1.99  25 2.85  37 2.88
                            33 2.92   3 2.95
  35  0.478  0.664  0.499-  45 1.84  87 1.88  68 1.91  52 1.93  74 1.95  82 2.03  18 2.79  40 2.86
                            32 2.86  28 2.88  14 2.94
  36  0.143  0.998  0.496-  51 1.85  44 1.88  86 1.92  70 1.94  76 1.96  81 1.97  22 2.81  31 2.86
                            39 2.89  27 2.92
  37  0.983  0.649  0.991-  83 1.90  60 1.91  77 1.93  55 1.93  66 1.95  73 1.95  38 2.81  34 2.88
                            30 2.97
  38  0.306  0.808  0.996-  84 1.89  83 1.91  77 1.92  85 1.92  78 1.98  79 2.00  19 2.74  37 2.81
                            29 2.84  33 2.91
  39  0.983  0.664  0.508-  64 1.86  57 1.92  80 1.92  86 1.93  70 1.95  75 2.03   9 2.77  24 2.84
                            32 2.85  36 2.89  28 2.92
  40  0.637  0.993  0.495-  88 1.89  74 1.89  82 1.95  63 1.97  56 1.97  69 1.99  35 2.86  27 2.92
                            31 2.96
  41  0.144  0.290  0.101-  25 1.92  26 1.94  11 2.34
  42  0.314  0.152  0.100-  26 1.95  29 1.99  21 2.03  11 2.19
  43  0.470  0.485  0.096-  33 1.88  26 1.98  17 2.00   5 2.35  10 2.37
  44  0.127  0.148  0.585-  36 1.88  27 1.94  18 2.12   4 2.34
  45  0.326  0.518  0.594-  35 1.84  18 1.98  32 2.01  14 2.27
  46  0.482  0.338  0.601-  31 1.96  28 1.97  18 2.01   7 2.23
  47  0.141  0.155  0.900-  25 1.95  26 1.99  21 2.09   2 2.20
  48  0.330  0.477  0.909-  26 1.89  33 1.97  19 2.01  14 2.23
  49  0.458  0.297  0.906-  26 1.88  29 1.96  17 2.13   2 2.23
  50  0.129  0.327  0.405-  27 1.86  32 1.99  18 2.12
  51  0.303  0.150  0.409-  36 1.85  31 1.95  18 2.16  11 2.29
  52  0.487  0.507  0.406-  35 1.93  28 1.96  18 2.02  10 2.29   5 2.33
  53  0.640  0.302  0.087-  30 1.90  17 1.97  29 1.98   1 2.19
  54  0.822  0.162  0.099-  30 1.94  25 1.98  23 2.00  16 2.29
  55  0.982  0.490  0.089-  37 1.93  19 2.09  30 2.10
  56  0.636  0.158  0.590-  31 1.94  40 1.97  20 2.09   7 2.35
  57  0.815  0.507  0.599-  39 1.92  28 1.98  20 2.12
  58  0.991  0.333  0.585-  32 1.90  27 1.93  20 2.07   8 2.19
  59  0.635  0.150  0.906-  30 1.91  29 1.91  23 2.05  12 2.20
  60  0.820  0.477  0.910-  30 1.88  37 1.91  17 2.12
  61  0.969  0.305  0.905-  30 1.97  25 1.97  19 2.08   8 2.35
  62  0.629  0.342  0.412-  28 1.81  31 1.98  20 2.10   1 2.34
  63  0.803  0.152  0.397-  27 1.96  40 1.97  20 2.05  16 2.26
  64  0.994  0.518  0.412-  39 1.86  32 1.91  20 2.04
  65  0.662  0.805  0.098-  34 1.91  33 1.97   6 2.14  23 2.15
  66  0.829  0.663  0.087-  34 1.90  37 1.95  17 2.09   5 2.32
  67  0.970  0.982  0.090-  25 1.88  34 1.92  21 2.07   6 2.30
  68  0.637  0.654  0.587-  28 1.85  35 1.91  22 2.08   3 2.36
  69  0.813  0.005  0.587-  27 1.93  40 1.99  22 2.03   4 2.34
  70  0.996  0.836  0.600-  36 1.94  39 1.95  22 2.11   3 2.27
  71  0.654  0.655  0.907-  34 1.91  33 2.02  17 2.06   3 2.30
  72  0.819  0.985  0.901-  25 1.96  34 1.99  23 2.12
  73  0.974  0.809  0.900-  34 1.91  37 1.95  21 2.06   3 2.22
  74  0.629  0.833  0.401-  40 1.89  35 1.95  22 2.18
  75  0.809  0.654  0.408-  28 1.91  22 2.00  39 2.03   5 2.24
  76  0.987  0.011  0.400-  27 1.90  36 1.96  22 2.03  11 2.31
  77  0.144  0.805  0.088-  38 1.92  37 1.93  21 2.02   9 2.34
  78  0.319  0.650  0.093-  33 1.92  38 1.98  19 2.01
  79  0.462  0.979  0.097-  29 1.90  38 2.00  23 2.07  15 2.27
  80  0.135  0.656  0.606-  39 1.92  24 1.98  32 1.99
  81  0.314  0.014  0.595-  31 1.85  36 1.97  24 1.98
  82  0.491  0.835  0.603-  40 1.95  24 2.01  35 2.03  12 2.28
  83  0.145  0.663  0.896-  37 1.90  38 1.91  19 2.03  13 2.32
  84  0.320  0.975  0.908-  29 1.84  38 1.89  21 2.03  13 2.22
  85  0.474  0.800  0.919-  33 1.84  38 1.92  23 2.10
  86  0.139  0.829  0.412-  36 1.92  39 1.93  24 2.11   9 2.17
  87  0.317  0.660  0.410-  35 1.88  32 1.92  24 2.17  15 2.24
  88  0.483  0.015  0.417-  31 1.88  40 1.89  24 2.16  15 2.34

  LATTYP: Found a hexagonal cell.
 ALAT       =    10.0190000534
 C/A-ratio  =     1.1196726572

  Lattice vectors:

 A1 = (  10.0190000534,   0.0000000000,   0.0000000000)
 A2 = (  -5.0095000267,   8.6767085668,   0.0000000000)
 A3 = (   0.0000000000,   0.0000000000,  11.2180004120)

Analysis of symmetry for initial positions (statically):
 Subroutine PRICEL returns:
 Original cell was already a primitive cell.

 Routine SETGRP: Setting up the symmetry group for a
 hexagonal supercell.

 Subroutine GETGRP returns: Found  1 space group operations
 (whereof  1 operations were pure point group operations)
 out of a pool of 24 trial point group operations.

The static configuration has the point symmetry C_1 .

Analysis of symmetry for dynamics (positions and initial velocities):
 Subroutine PRICEL returns:
 Original cell was already a primitive cell.

[...]

The dynamic configuration has the point symmetry C_1 .

Analysis of structural, dynamic, and magnetic symmetry:
 Subroutine PRICEL returns:
 Original cell was already a primitive cell.

 Routine SETGRP: Setting up the symmetry group for a
 hexagonal supercell.

 Subroutine GETGRP returns: Found  1 space group operations
 (whereof  1 operations were pure point group operations)
 out of a pool of 24 trial point group operations.

The magnetic configuration has the point symmetry C_1 .

 Subroutine INISYM returns: Found  1 space group operations
 (whereof  1 operations are pure point group operations),
[...]
   4       0.004     0.005     0.993    -0.059     0.991
   5       0.015     0.014     2.638    -0.097     2.638
   6       0.009     0.009     3.247    -0.120     3.247
   7      -0.009    -0.009     2.528    -0.097     2.528
   8      -0.003    -0.003     2.551    -0.105     2.551
   9       0.017     0.018     1.448    -0.075     1.447
  10      -0.004    -0.004     2.691    -0.117     2.690
  11       0.012     0.011     3.255    -0.090     3.256
  12       0.020     0.020     1.787    -0.083     1.788
  13       0.008     0.008     3.210    -0.110     3.210
  14       0.012     0.011     1.075    -0.067     1.076
  15       0.002     0.002     2.117    -0.099     2.117
  16      -0.002    -0.002     2.420    -0.100     2.420
  17       0.073     0.076    13.262     0.134    13.259
  18       0.053     0.057    13.141     0.120    13.138
  19       0.032     0.035    11.486     0.102    11.482
  20       0.064     0.068    13.271     0.131    13.266
  21       0.042     0.044    12.424     0.144    12.423
  22       0.043     0.046    12.185     0.124    12.183
  23       0.040     0.044    11.815     0.120    11.811
  24       0.049     0.052    12.897     0.124    12.894
  25     161.744   161.722    94.201  -140.250    94.223
  26     161.339   161.314    94.990  -139.685    95.015
  27     160.872   160.851    96.290  -138.908    96.311
  28     159.569   159.552    91.713  -137.154    91.730
  29     160.624   160.608    96.244  -138.573    96.261
  30     162.989   162.973    98.032  -141.577    98.049
  31     161.177   161.154    98.565  -139.190    98.587
  32     163.233   163.213   102.855  -141.867   102.876
  33     161.563   161.542    98.929  -139.687    98.949
  34     160.952   160.935    93.243  -139.112    93.259
  35     160.529   160.508    95.179  -138.329    95.199
  36     160.304   160.293    96.433  -138.133    96.444
  37     161.361   161.336    97.379  -139.495    97.404
  38     161.499   161.486   100.663  -139.603   100.677
  39     161.272   161.255    96.460  -139.439    96.477
  40     161.981   161.969    95.612  -140.476    95.624
  41       3.006     3.004     9.193    -3.041     9.194
  42       1.773     1.780     7.471    -1.699     7.464
  43       1.813     1.812     6.182    -1.818     6.183
  44       1.577     1.583     5.824    -1.571     5.818
  45       2.997     3.003    10.110    -2.983    10.104
  46       2.010     2.012     7.599    -1.960     7.597
  47       0.747     0.751     4.900    -0.659     4.896
  48       1.470     1.471     6.664    -1.396     6.664
  49       2.618     2.622     7.637    -2.677     7.632
  50       1.921     1.923     7.038    -1.908     7.037
  51       3.019     3.021     8.678    -3.095     8.675
  52       0.555     0.559     3.975    -0.481     3.971
  53       1.729     1.732     6.606    -1.699     6.602
  54       1.707     1.711     7.666    -1.609     7.662
  55      -0.268    -0.262     3.368     0.430     3.362
  56       1.113     1.116     4.797    -1.084     4.793
  57       2.048     2.050     7.046    -2.045     7.044
  58       2.230     2.229     7.005    -2.263     7.005
  59       1.979     1.979     7.139    -1.967     7.139
  60       2.951     2.956     8.265    -3.048     8.260
[...]
  74       3.077     3.077     8.966    -3.136     8.965
  75       0.836     0.837     3.934    -0.807     3.932
  76       1.558     1.564     5.707    -1.562     5.701
  77       2.442     2.443     9.503    -2.353     9.502
  78       1.599     1.601     6.902    -1.527     6.900
  79       2.126     2.128     7.663    -2.096     7.661
  80       1.270     1.277     6.989    -1.152     6.982
  81       1.962     1.964     6.772    -1.964     6.769
  82       1.181     1.183     6.411    -1.067     6.409
  83       3.098     3.103    10.204    -3.101    10.198
  84       3.478     3.486     9.182    -3.616     9.174
  85       3.586     3.591     9.033    -3.738     9.028
  86       2.827     2.832     9.163    -2.836     9.158
  87       3.150     3.157     8.912    -3.230     8.905
  88       2.497     2.503     7.445    -2.564     7.439

 Dipolar hyperfine coupling parameters (MHz)
  ion      A_xx      A_yy      A_zz      A_xy      A_xz      A_yz
   1      -0.844    -0.997     1.841    -0.033    -0.048     0.052
   2      -0.723    -0.906     1.628    -0.071     0.049     0.465
   3      -0.577    -0.912     1.488    -0.052     0.051     0.444
   4      -0.912    -0.912     1.823    -0.071    -0.010    -0.076
   5      -0.578    -0.811     1.389    -0.059     0.052    -0.405
   6      -0.826    -0.712     1.538     0.128    -0.496     0.213
   7      -0.875    -0.661     1.536     0.100     0.504    -0.244
   8      -0.804    -0.616     1.420    -0.109    -0.452    -0.279
   9      -0.954    -0.902     1.856    -0.025     0.026     0.032
  10      -0.885    -0.700     1.585     0.075    -0.467     0.306
  11      -0.675    -0.953     1.628    -0.034     0.073    -0.487
  12      -0.631    -0.591     1.222    -0.088    -0.127     0.008
  13      -0.823    -0.713     1.537     0.149     0.480    -0.288
  14      -0.892    -1.003     1.895    -0.072     0.040     0.083
  15      -0.693    -0.635     1.328    -0.121     0.420     0.137
  16      -0.766    -0.699     1.465    -0.112     0.421     0.279
  17       1.422     1.520    -2.942    -0.053    -0.131    -0.037
  18       1.309     1.667    -2.976    -0.048     0.100     0.111
  19       1.442     1.325    -2.767     0.016     0.124     0.073
  20       1.493     1.396    -2.889     0.110    -0.039     0.096
  21       1.578     1.334    -2.912    -0.072    -0.050     0.118
  22       1.321     1.553    -2.874     0.031     0.055    -0.157
  23       1.418     1.425    -2.843     0.073     0.043     0.052
  24       1.336     1.501    -2.836    -0.005    -0.011    -0.039
  25       0.239     1.362    -1.601     0.574    -0.884     0.198
  26       1.755     0.333    -2.089    -0.360     1.088     1.209
  27       0.239    -1.187     0.948     0.027     0.313     0.228
  28       0.809    -0.796    -0.013     0.522     0.424    -1.029
  29       0.969    -0.576    -0.392    -0.368     0.604    -0.217
  30      -1.183    -0.647     1.830    -0.374    -0.110     1.380
  31      -0.032    -1.336     1.367    -0.148     0.548    -0.173
  32      -0.097    -0.667     0.763    -1.315     0.201     0.398
  33      -0.327    -1.403     1.731     0.608    -0.339     1.320
  34       0.635    -0.123    -0.512     0.070     0.264    -0.228
  35      -0.181     0.720    -0.539    -0.070     0.770     1.033
  36       0.285    -0.434     0.149     0.841     0.670     1.191
  37      -0.110    -0.342     0.453    -0.337     1.013     0.083
  38      -0.940     0.662     0.278     0.597    -1.210    -0.106
  39       1.093    -0.300    -0.794     0.233     0.128    -0.000
  40      -0.832     0.732     0.100     1.977     0.550     1.108
  41      -2.445     3.432    -0.987    -6.974     1.842    -2.948
  42      -2.018     2.694    -0.677     5.825     2.947     3.808
  43       5.113    -5.782     0.669    -0.079    -4.393     0.371
  44      -2.519     2.929    -0.410     4.716    -1.703    -3.306
  45      -3.305     3.302     0.004    -6.309    -1.710     5.265
  46       4.822    -5.429     0.606    -0.505     5.198    -0.568
  47      -1.990     2.852    -0.863    -5.290     2.116    -3.636
  48       6.994    -6.426    -0.568     0.917    -4.491    -0.825
  49      -2.383     1.039     1.345     6.464     2.982     3.327
  50       5.066    -6.696     1.629    -0.006     5.520    -1.280
  51      -1.900     1.381     0.519    -6.320    -2.957     3.899
  52      -2.295     1.479     0.816     4.605    -1.454    -4.754
  53      -3.472     1.852     1.620    -3.890     3.496    -3.640
  54      -4.408     5.102    -0.694     4.202     1.171     2.954
  55       4.540    -5.405     0.865    -0.930    -7.184     0.919
  56      -3.807     1.852     1.955     3.598    -2.548    -4.382
  57      -3.423     2.082     1.341    -4.231    -2.245     3.481
  58       5.826    -6.350     0.524    -1.469     4.937     0.181
  59      -2.502     1.178     1.325    -5.192     2.442    -4.265
  60       4.543    -7.601     3.058    -0.647    -4.198     1.421
[...]
  74       5.091    -6.241     1.150     2.084     4.501    -1.157
  75      -1.744     0.766     0.978    -3.780    -1.319     3.546
  76      -3.283     2.326     0.957     4.948    -1.861    -3.803
  77      -2.906     3.625    -0.720    -4.358     3.402    -4.650
  78      -5.348     4.193     1.154     3.566     2.609     5.586
  79       5.357    -5.045    -0.312     0.396    -4.356     1.189
  80      -3.498     3.739    -0.241     4.205    -2.479    -3.759
  81      -2.255     1.465     0.790    -4.734    -1.622     3.700
  82       5.432    -4.363    -1.069    -0.032     3.938     1.617
  83      -3.052     2.809     0.243    -5.713     1.101    -3.862
  84       5.608    -6.626     1.018     0.148    -5.239    -0.698
  85      -5.145     2.407     2.738     4.205     0.829     5.597
  86       6.511    -7.260     0.749     0.607     5.963     1.900
  87      -3.738     3.380     0.357    -5.115    -2.426     5.376
  88      -4.116     3.042     1.074     5.841    -2.413    -4.828

 Total hyperfine coupling parameters after diagonalization (MHz)
 (convention: |A_zz| > |A_xx| > |A_yy|)
  ion      A_xx      A_yy      A_zz     asymmetry (A_yy - A_xx)/ A_zz
   1       0.204     0.038     2.886      -0.058
   2       2.339     2.031     4.752      -0.065
   3       1.768     1.337     3.905      -0.110
   4       0.149     0.007     2.817      -0.050
   5       2.066     1.747     4.101      -0.078
   6       2.616     2.226     4.899      -0.080
   7       1.906     1.492     4.186      -0.099
   8       1.983     1.580     4.089      -0.099
   9       0.555     0.482     3.304      -0.022
  10       2.012     1.664     4.395      -0.079
  11       2.580     2.214     4.976      -0.074
  12       1.263     1.081     3.018      -0.060
  13       2.599     2.162     4.868      -0.090
  14       0.220     0.035     2.974      -0.062
  15       1.568     1.247     3.534      -0.091
  16       1.805     1.465     3.990      -0.085
  17      14.662    10.313    14.802      -0.294
  18      14.443    10.157    14.813      -0.289
  19      12.806     8.710    12.930      -0.317
  20      14.593    10.375    14.832      -0.284
  21      13.740     9.506    14.022      -0.302
  22      13.501     9.303    13.744      -0.305
  23      13.159     8.967    13.307      -0.315
  24      14.230    10.058    14.395      -0.290
  25      94.615    92.218    95.836      -0.025
  26      95.842    92.144    97.058      -0.038
  27      96.435    95.100    97.399      -0.014
  28      92.417    90.045    92.727      -0.026
  29      95.689    95.540    97.555      -0.002
  30      97.115    96.520   100.512      -0.006
  31      98.373    97.230   100.159      -0.011
  32     103.665   101.074   103.888      -0.025
  33      98.877    96.804   101.167      -0.020
  34      93.239    92.587    93.953      -0.007
  35      95.331    93.694    96.573      -0.017
  36      96.052    95.027    98.255      -0.010
  37      97.198    96.375    98.638      -0.008
  38     101.142    98.905   101.984      -0.022
  39      96.140    95.674    97.617      -0.005
  40      95.151    93.434    98.287      -0.017
  41       7.029     2.118    18.435      -0.266
  42       4.430     1.490    16.471      -0.178
  43       4.171     0.376    14.003      -0.271
  44       3.652     0.568    13.233      -0.233
  45       7.481     2.686    20.145      -0.238
  46       4.716     2.115    15.960      -0.163
  47       2.094    -0.502    13.095      -0.198
  48       4.039     0.115    15.837      -0.248
  49       6.295     0.258    16.345      -0.369
  50       4.835     0.072    16.203      -0.294
  51       6.395     1.886    17.745      -0.254
  52       1.961    -1.876    11.828      -0.324
  53       4.704     0.699    14.404      -0.278
  54       5.790     1.662    15.532      -0.266
  55      -2.180    -1.322    13.587       0.063
  56       2.475    -0.791    12.697      -0.257
  57       5.518     1.307    14.306      -0.294
  58       4.772     0.370    15.874      -0.277
  59       5.061     0.928    15.429      -0.268
  60       7.858     0.471    16.449      -0.449
[...]
  74       7.994     1.813    17.087      -0.362
  75       2.525    -0.788    10.059      -0.329
  76       4.072    -0.482    13.514      -0.337
  77       5.943     3.952    18.613      -0.107
  78       3.787     0.258    16.655      -0.212
  79       5.511     2.087    15.384      -0.223
  80       4.479     1.423    15.045      -0.203
  81       5.187     1.174    13.947      -0.288
  82       4.394     1.098    13.734      -0.240
  83       8.738     3.458    18.398      -0.287
  84       6.826     2.473    18.223      -0.239
  85       7.281     1.698    18.105      -0.308
  86       6.511     1.420    19.542      -0.261
  87       5.595     2.466    18.653      -0.168
  88       5.147     0.041    17.128      -0.298

 stress matrix after NEB project (eV)
    -51.72613      0.79982     -5.88934
      0.78972    -45.36079     -1.05686
     -5.88144     -1.05446    -66.94760
  FORCES: max atom, RMS     2.423536    1.073063
  FORCE total and by dimension   10.066224    1.934919
  Stress total and by dimension   96.373979   66.947603

 total charge

[...]

 magnetization (x)

# of ion       s       p       d       tot
    1        0.001   0.000   0.000   0.001
    2        0.002   0.000   0.000   0.002
    3        0.002   0.000   0.000   0.002
    4        0.001   0.000   0.000   0.001
    5        0.002   0.001   0.000   0.002
    6        0.002   0.001   0.000   0.003
    7        0.002   0.000   0.000   0.002
    8        0.002   0.000   0.000   0.002
    9        0.001   0.001   0.000   0.002
   10        0.002   0.000   0.000   0.002
   11        0.002   0.000   0.000   0.003
   12        0.001   0.001   0.000   0.002
   13        0.002   0.000   0.000   0.003
   14        0.001   0.000   0.000   0.001
   15        0.002   0.000   0.000   0.002
   16        0.002   0.000   0.000   0.002
   17        0.008   0.003   0.001   0.012
   18        0.007   0.002   0.001   0.011
   19        0.006   0.002   0.001   0.009
   20        0.008   0.003   0.001   0.011
   21        0.007   0.002   0.001   0.009
   22        0.007   0.002   0.001   0.010
   23        0.007   0.002   0.001   0.010
   24        0.007   0.002   0.001   0.011
   25        0.015   0.028   2.771   2.814
   26        0.015   0.029   2.762   2.806
   27        0.015   0.031   2.752   2.798
   28        0.014   0.030   2.724   2.768
   29        0.015   0.030   2.748   2.794
   30        0.015   0.030   2.793   2.838
   31        0.016   0.031   2.758   2.805
   32        0.017   0.030   2.800   2.847
   33        0.016   0.031   2.767   2.814
   34        0.014   0.029   2.754   2.797
   35        0.015   0.030   2.745   2.790
   36        0.015   0.030   2.740   2.786
   37        0.016   0.031   2.762   2.808
   38        0.017   0.030   2.765   2.812
   39        0.015   0.030   2.762   2.807
   40        0.015   0.029   2.774   2.818
   41        0.002   0.047   0.000   0.049
   42        0.002   0.025   0.000   0.027
   43        0.002   0.027   0.000   0.028
   44        0.002   0.023   0.000   0.024
   45        0.003   0.046   0.000   0.048
   46        0.002   0.030   0.000   0.032
   47        0.002   0.008   0.000   0.009
   48        0.002   0.020   0.000   0.022
   49        0.002   0.041   0.000   0.043
   50        0.002   0.028   0.000   0.030
   51        0.002   0.047   0.000   0.049
   52        0.001   0.005   0.000   0.006
   53        0.002   0.025   0.000   0.027
   54        0.002   0.024   0.000   0.026
   55        0.001  -0.010   0.000  -0.009
   56        0.001   0.015   0.000   0.016
   57        0.002   0.031   0.000   0.033
   58        0.002   0.034   0.000   0.036
   59        0.002   0.029   0.000   0.031
   60        0.002   0.046   0.000   0.048
[...]
   74        0.002   0.048   0.000   0.050
   75        0.001   0.010   0.000   0.012
   76        0.002   0.022   0.000   0.024
   77        0.003   0.036   0.000   0.039
   78        0.002   0.022   0.000   0.024
   79        0.002   0.032   0.000   0.034
   80        0.002   0.016   0.000   0.018
   81        0.002   0.029   0.000   0.031
   82        0.002   0.015   0.000   0.017
   83        0.003   0.047   0.000   0.050
   84        0.002   0.055   0.000   0.057
   85        0.002   0.057   0.000   0.060
   86        0.002   0.043   0.000   0.046
   87        0.002   0.050   0.000   0.052
   88        0.002   0.038   0.000   0.040
tot          0.422   1.986  44.188  46.596