 vasp.5.4.4.18Apr17-6-g9f103f2a35 (build Dec 02 2020 12:53:39) complex

 executed on             LinuxIFC date 2021.08.04  02:36:09

 INCAR:
 POTCAR:    PAW_PBE Na_pv 19Sep2006
 POTCAR:    PAW_PBE Mg_pv 13Apr2007
 POTCAR:    PAW_PBE Mn_pv 02Aug2007
 POTCAR:    PAW_PBE O 08Apr2002

 POTCAR:    PAW_PBE Na_pv 19Sep2006
   VRHFIN =Na: p6s1

   TITEL  = PAW_PBE Na_pv 19Sep2006
   POMASS =   22.990; ZVAL   =    7.000    mass and valenz
   ENMAX  =  259.561; ENMIN  =  194.671 eV

 POTCAR:    PAW_PBE Mg_pv 13Apr2007
   VRHFIN =Mg: p6s2

   TITEL  = PAW_PBE Mg_pv 13Apr2007
   POMASS =   24.305; ZVAL   =    8.000    mass and valenz
   ENMAX  =  403.929; ENMIN  =  302.947 eV

 POTCAR:    PAW_PBE Mn_pv 02Aug2007
   VRHFIN =Mn: 3p4s3d

   TITEL  = PAW_PBE Mn_pv 02Aug2007
   POMASS =   54.938; ZVAL   =   13.000    mass and valenz
   ENMAX  =  269.864; ENMIN  =  202.398 eV

 POTCAR:    PAW_PBE O 08Apr2002
   VRHFIN =O: s2p4

   TITEL  = PAW_PBE O 08Apr2002
   POMASS =   16.000; ZVAL   =    6.000    mass and valenz
   ENMAX  =  400.000; ENMIN  =  300.000 eV

 Optimization of the real space projectors (new method)

 maximal supplied QI-value         = 17.01
 optimisation between [QCUT,QGAM] = [ 10.20, 20.41] = [ 29.16,116.64] Ry
 Optimized for a Real-space Cutoff    1.30 Angstroem

   l    n(q)    QCUT    max X(q) W(low)/X(q) W(high)/X(q)  e(spline)
   1      7    10.205     4.940    0.23E-03    0.84E-03    0.11E-06
   1      7    10.205     6.253    0.40E-03    0.13E-02    0.18E-06
   0      8    10.205    37.438    0.23E-03    0.37E-03    0.42E-07
   0      8    10.205     9.606    0.16E-03    0.26E-03    0.31E-07
 Optimization of the real space projectors (new method)

[...]

   l    n(q)    QCUT    max X(q) W(low)/X(q) W(high)/X(q)  e(spline)
   1      8    10.239     3.658    0.23E-03    0.30E-03    0.98E-07
   1      8    10.239     5.612    0.32E-03    0.65E-03    0.21E-06
   2      7    10.239    55.373    0.42E-03    0.45E-03    0.65E-07
   2      7    10.239    50.863    0.43E-03    0.48E-03    0.67E-07
   0      8    10.239    79.536    0.11E-03    0.21E-03    0.56E-07
   0      8    10.239    38.668    0.96E-04    0.19E-03    0.52E-07
 Optimization of the real space projectors (new method)

 maximal supplied QI-value         = 24.76
 optimisation between [QCUT,QGAM] = [ 10.15, 20.30] = [ 28.85,115.39] Ry
 Optimized for a Real-space Cutoff    1.38 Angstroem

   l    n(q)    QCUT    max X(q) W(low)/X(q) W(high)/X(q)  e(spline)
   0      8    10.150    20.381    0.22E-03    0.32E-03    0.29E-06
   0      8    10.150    15.268    0.23E-03    0.35E-03    0.30E-06
   1      8    10.150     5.964    0.46E-03    0.53E-03    0.21E-06
   1      8    10.150     5.382    0.38E-03    0.45E-03    0.19E-06
  PAW_PBE Na_pv 19Sep2006               :
  PAW_PBE Mg_pv 13Apr2007               :
  PAW_PBE Mn_pv 02Aug2007               :
  PAW_PBE O 08Apr2002                   :

 POSCAR: Na Mg Mn  O
  positions in cartesian coordinates

 METAGGA = SCAN     LMAXTAU =  6    LMIXTAU =  F

 VTST: version 3.2, (02/03/18)

 CHAIN: initializing optimizer

 OPT: Using VASP Dynamics algorithm
 CHAIN: Read ICHAIN            0

 POSCAR: Na Mg Mn  O
  positions in cartesian coordinates

 ion  position               nearest neighbor table
   1  0.873  0.171  0.262-  63 2.20  54 2.23
   2  0.358  0.814  0.752-  81 2.27  83 2.37
   3  0.714  0.743  0.750-  85 2.20  82 2.21  71 2.33  33 2.98
   4  0.136  0.466  0.754-  57 2.34
   5  0.443  0.463  0.233-  43 2.22  41 2.31  87 2.36
   6  0.656  0.833  0.243-  79 2.31  65 2.32
   7  0.929  0.622  0.751-  68 2.28
   8  0.476  0.353  0.739-  45 2.23  48 2.26
   9  0.136  0.136  0.251-  63 2.32  41 2.37  27 2.89  25 2.96
  10  0.164  0.616  0.260-  64 2.21  55 2.38  39 2.74
  11  0.376  0.962  0.248-  86 2.21  77 2.21  42 2.35
  12  0.966  0.137  0.742-  56 2.20  69 2.31  61 2.37
  13  0.644  0.159  0.760-  59 2.21  49 2.29  46 2.35  29 2.75  31 2.90
  14  0.164  0.997  0.746-  47 2.29  69 2.30  44 2.35
  15  0.666  0.328  0.253-  52 2.21  53 2.35
  16  0.988  0.808  0.262-  66 2.31  34 2.95
  17  0.787  0.467  0.003-  49 1.97  53 1.98  43 2.09  71 2.11  60 2.12  66 2.24  29 2.78  26 2.84

  18  0.498  0.320  0.476-  51 2.03  50 2.03  52 2.06  45 2.10  44 2.15  46 2.17  35 2.79  28 2.86

[...]

  24  0.481  0.809  0.493-  82 1.96  86 2.04  80 2.09  87 2.12  81 2.15  88 2.18  36 2.83  39 2.85

  25  0.124  0.138  0.988-  61 1.81  47 1.83  72 1.91  67 1.92  41 1.95  54 2.00  34 2.83  26 2.91
                            30 2.92   9 2.96
  26  0.459  0.307  0.007-  42 1.88  41 1.89  43 1.89  49 1.98  48 1.99  47 1.99  19 2.83  17 2.84
                            29 2.87  25 2.91  33 2.97
  27  0.156  0.149  0.508-  58 1.85  44 1.89  50 1.92  63 1.93  69 1.98  76 1.98  32 2.83   9 2.89
                            36 2.94  40 2.97
  28  0.825  0.474  0.505-  75 1.85  46 1.90  57 1.92  62 1.95  68 1.98  52 2.10  20 2.82  39 2.85
                            31 2.85  18 2.86  35 2.99
  29  0.630  0.147  0.005-  49 1.86  84 1.88  59 1.90  53 1.91  79 1.96  42 2.00  13 2.75  17 2.78
                            30 2.85  26 2.87  38 2.92
  30  0.958  0.307  0.998-  55 1.86  53 1.87  59 1.91  54 1.91  60 1.96  61 2.02  29 2.85  37 2.86
                            25 2.92
  31  0.659  0.145  0.502-  51 1.83  46 1.86  88 1.89  62 1.91  56 1.95  81 2.02  20 2.80  28 2.85
                            36 2.87  13 2.90  40 2.90
  32  0.322  0.474  0.497-  64 1.86  80 1.89  45 1.90  58 1.91  50 1.91  87 2.05  27 2.83  35 2.83
                            39 2.90
  33  0.626  0.649  0.002-  78 1.83  65 1.89  71 1.89  48 1.94  85 1.94  43 2.00  23 2.74  38 2.82
                            34 2.91  26 2.97   3 2.98
  34  0.961  0.812  0.999-  67 1.86  65 1.91  72 1.92  71 1.94  66 1.96  73 2.04  23 2.78  25 2.83
                            33 2.91  16 2.95  37 2.98
  35  0.648  0.640  0.483-  45 1.84  87 1.85  74 1.92  68 1.94  52 1.94  82 1.98  18 2.79  32 2.83
                            40 2.84  22 2.85  28 2.99
  36  0.328  0.983  0.509-  81 1.89  44 1.92  70 1.93  76 1.95  51 1.95  86 1.97  24 2.83  31 2.87
                            27 2.94  39 2.98
  37  0.130  0.637  0.996-  83 1.80  55 1.88  60 1.89  73 1.94  77 2.00  66 2.00  30 2.86  38 2.89
                            34 2.98
  38  0.462  0.810  0.007-  78 1.89  77 1.89  84 1.90  83 1.96  79 1.97  85 1.98  33 2.82  37 2.89
                            29 2.92
  39  0.153  0.639  0.503-  80 1.88  57 1.90  64 1.90  75 1.93  86 1.95  70 2.00  10 2.74  28 2.85
                            24 2.85  32 2.90  36 2.98
  40  0.815  0.966  0.503-  82 1.85  74 1.86  88 1.91  63 1.94  56 1.95  69 2.05  22 2.79  35 2.84
                            31 2.90  27 2.97
  41  0.287  0.290  0.090-  26 1.89  25 1.95  19 2.04   5 2.31   9 2.37
  42  0.464  0.153  0.099-  26 1.88  29 2.00  21 2.07  11 2.35
  43  0.610  0.474  0.097-  26 1.89  33 2.00  17 2.09   5 2.22
  44  0.322  0.149  0.589-  27 1.89  36 1.92  18 2.15  14 2.35
  45  0.496  0.493  0.579-  35 1.84  32 1.90  18 2.10   8 2.23
  46  0.666  0.305  0.590-  31 1.86  28 1.90  18 2.17  13 2.35
  47  0.289  0.149  0.908-  25 1.83  26 1.99  21 2.04  14 2.29
  48  0.476  0.478  0.907-  33 1.94  26 1.99  19 2.02   8 2.26
  49  0.621  0.297  0.913-  29 1.86  17 1.97  26 1.98  13 2.29
  50  0.305  0.305  0.405-  32 1.91  27 1.92  18 2.03
  51  0.500  0.132  0.412-  31 1.83  36 1.95  18 2.03
  52  0.677  0.497  0.385-  35 1.94  18 2.06  28 2.10  15 2.21
  53  0.801  0.303  0.091-  30 1.87  29 1.91  17 1.98  15 2.35
  54  0.963  0.146  0.087-  30 1.91  25 2.00  23 2.05   1 2.23
  55  0.116  0.469  0.082-  30 1.86  37 1.88  19 2.05  10 2.38
  56  0.810  0.126  0.599-  31 1.95  40 1.95  20 2.03  12 2.20
  57  0.992  0.493  0.601-  39 1.90  28 1.92  20 2.10   4 2.34
  58  0.177  0.314  0.598-  27 1.85  32 1.91  20 2.16
  59  0.789  0.155  0.907-  29 1.90  30 1.91  23 2.16  13 2.21
  60  0.973  0.479  0.904-  37 1.89  30 1.96  17 2.12
  61  0.120  0.289  0.903-  25 1.81  30 2.02  19 2.06  12 2.37
  62  0.820  0.307  0.412-  31 1.91  28 1.95  20 1.96
  63  0.986  0.124  0.412-  27 1.93  40 1.94  20 2.14   1 2.20   9 2.32
  64  0.163  0.482  0.416-  32 1.86  39 1.90  20 2.08  10 2.21
  65  0.794  0.798  0.092-  33 1.89  34 1.91  23 2.01   6 2.32
  66  0.983  0.663  0.100-  34 1.96  37 2.00  17 2.24  16 2.31
  67  0.116  0.975  0.084-  34 1.86  25 1.92  21 2.04
  68  0.798  0.633  0.588-  35 1.94  28 1.98  22 1.99   7 2.28
  69  0.992  0.980  0.603-  27 1.98  22 2.01  40 2.05  14 2.30  12 2.31
  70  0.173  0.813  0.602-  36 1.93  39 2.00  22 2.24
  71  0.787  0.651  0.913-  33 1.89  34 1.94  17 2.11   3 2.33
  72  0.968  0.970  0.899-  25 1.91  34 1.92  23 2.01
  73  0.123  0.794  0.900-  37 1.94  34 2.04  21 2.09
  74  0.813  0.815  0.405-  40 1.86  35 1.92  22 2.01
  75  0.982  0.622  0.411-  28 1.85  39 1.93  22 2.14
  76  0.178  0.998  0.408-  36 1.95  27 1.98
  77  0.297  0.803  0.094-  38 1.89  37 2.00  21 2.05  11 2.21
  78  0.475  0.654  0.092-  33 1.83  38 1.89  19 2.12
  79  0.618  0.981  0.104-  29 1.96  38 1.97  23 2.23   6 2.31
  80  0.307  0.625  0.588-  39 1.88  32 1.89  24 2.09
  81  0.486  0.986  0.604-  36 1.89  31 2.02  24 2.15   2 2.27
  82  0.649  0.806  0.579-  40 1.85  24 1.96  35 1.98   3 2.21
  83  0.292  0.645  0.918-  37 1.80  38 1.96  19 1.99   2 2.37
  84  0.475  0.979  0.920-  29 1.88  38 1.90  21 1.98
  85  0.620  0.806  0.903-  33 1.94  23 1.95  38 1.98   3 2.20
  86  0.302  0.811  0.407-  39 1.95  36 1.97  24 2.04  11 2.21
  87  0.494  0.637  0.391-  35 1.85  32 2.05  24 2.12   5 2.36
  88  0.678  0.001  0.406-  31 1.89  40 1.91  24 2.18

  LATTYP: Found a hexagonal cell.
 ALAT       =    10.0190000534
 C/A-ratio  =     1.1196726572

  Lattice vectors:

 A1 = (  10.0190000534,   0.0000000000,   0.0000000000)
 A2 = (  -5.0095000267,   8.6767085668,   0.0000000000)
 A3 = (   0.0000000000,   0.0000000000,  11.2180004120)

Analysis of symmetry for initial positions (statically):
 Subroutine PRICEL returns:
 Original cell was already a primitive cell.

 Routine SETGRP: Setting up the symmetry group for a
 hexagonal supercell.

 Subroutine GETGRP returns: Found  1 space group operations
 (whereof  1 operations were pure point group operations)
 out of a pool of 24 trial point group operations.

The static configuration has the point symmetry C_1 .

Analysis of symmetry for dynamics (positions and initial velocities):
 Subroutine PRICEL returns:
 Original cell was already a primitive cell.

[...]

The dynamic configuration has the point symmetry C_1 .

Analysis of structural, dynamic, and magnetic symmetry:
 Subroutine PRICEL returns:
 Original cell was already a primitive cell.

 Routine SETGRP: Setting up the symmetry group for a
 hexagonal supercell.

 Subroutine GETGRP returns: Found  1 space group operations
 (whereof  1 operations were pure point group operations)
 out of a pool of 24 trial point group operations.

The magnetic configuration has the point symmetry C_1 .

 Subroutine INISYM returns: Found  1 space group operations
 (whereof  1 operations are pure point group operations),
 and found     1 'primitive' translations

Automatic generation of k-mesh.
[...]
   4       0.008     0.010     3.486    -0.189     3.484
   5      -0.003    -0.004     3.143    -0.100     3.143
   6      -0.007    -0.006     2.854    -0.137     2.854
   7      -0.005    -0.005     2.086    -0.110     2.086
   8       0.020     0.021     1.712    -0.111     1.711
   9       0.019     0.019     1.708    -0.096     1.709
  10       0.006     0.006     0.952    -0.069     0.952
  11       0.006     0.006     1.789    -0.064     1.789
  12      -0.009    -0.009     2.700    -0.097     2.700
  13       0.015     0.015     1.250    -0.072     1.250
  14      -0.011    -0.011     2.388    -0.085     2.388
  15      -0.007    -0.006     2.365    -0.113     2.363
  16       0.018     0.016     1.554    -0.115     1.556
  17       0.045     0.049    12.924     0.114    12.920
  18       0.049     0.054    13.730     0.127    13.725
  19       0.078     0.080    14.722     0.154    14.720
  20       0.046     0.049    13.312     0.128    13.308
  21       0.072     0.073    13.569     0.150    13.568
  22       0.025     0.028    11.661     0.098    11.659
  23       0.030     0.032    11.878     0.119    11.876
  24       0.039     0.043    12.508     0.109    12.504
  25     158.779   158.760    93.816  -135.999    93.834
  26     161.130   161.107    97.438  -139.206    97.460
  27     160.462   160.438    93.728  -138.414    93.753
  28     161.643   161.635    96.932  -139.886    96.940
  29     160.223   160.204    98.141  -137.997    98.160
  30     160.864   160.845    99.043  -138.775    99.062
  31     159.407   159.388    94.046  -136.824    94.065
  32     160.977   160.965   100.346  -138.797   100.358
  33     159.961   159.943    94.761  -137.589    94.780
  34     161.780   161.755    96.457  -140.056    96.482
  35     159.657   159.633    93.182  -137.123    93.206
  36     161.679   161.654    94.922  -140.107    94.947
  37     160.276   160.257    96.045  -137.889    96.064
  38     161.930   161.909    98.896  -140.197    98.917
  39     160.804   160.786    99.639  -138.694    99.657
  40     160.749   160.737    94.138  -138.618    94.150
  41       1.666     1.667     6.081    -1.654     6.079
  42       2.536     2.541     8.068    -2.560     8.063
  43       1.448     1.449     5.774    -1.425     5.773
  44       2.420     2.427     7.335    -2.479     7.329
  45       3.933     3.935    10.907    -4.021    10.905
  46       4.319     4.323    10.901    -4.482    10.897
  47       2.722     2.724     7.964    -2.784     7.962
  48       1.252     1.254     6.197    -1.155     6.194
  49       2.442     2.449     8.005    -2.454     7.997
  50       1.823     1.822     6.702    -1.791     6.703
  51       2.575     2.579     7.856    -2.620     7.853
  52       0.526     0.532     5.842    -0.339     5.835
  53       2.447     2.452     7.528    -2.488     7.524
  54       1.633     1.639     5.977    -1.621     5.971
  55       3.455     3.457     9.130    -3.577     9.128
  56       2.017     2.019     6.649    -2.017     6.647
  57       2.200     2.202     7.926    -2.186     7.924
  58       3.069     3.073     9.175    -3.136     9.171
  59       2.596     2.599     8.458    -2.601     8.455
  60       1.942     1.944     7.068    -1.921     7.066
[...]
  74       2.988     2.987     7.723    -3.098     7.723
  75       3.280     3.290     9.780    -3.336     9.770
  76       0.802     0.805     4.215    -0.744     4.212
  77       1.307     1.310     5.244    -1.283     5.240
  78       4.083     4.091    10.166    -4.258    10.158
  79       1.662     1.668     7.322    -1.582     7.315
  80       2.734     2.741     8.157    -2.789     8.149
  81       2.382     2.388     7.914    -2.390     7.908
  82       2.642     2.638     8.481    -2.649     8.484
  83       2.850     2.855     7.545    -2.980     7.541
  84       2.741     2.741     7.826    -2.808     7.826
  85       2.137     2.140     8.735    -2.040     8.732
  86       1.276     1.276     6.038    -1.190     6.037
  87       2.720     2.727     8.478    -2.754     8.471
  88       1.895     1.900     6.842    -1.884     6.838

 Dipolar hyperfine coupling parameters (MHz)
  ion      A_xx      A_yy      A_zz      A_xy      A_xz      A_yz
   1      -0.575    -0.806     1.381     0.038    -0.096    -0.470
   2      -0.869    -0.650     1.520     0.123     0.414    -0.236
   3      -0.896    -0.875     1.771     0.101     0.225    -0.191
   4      -0.841    -0.678     1.518    -0.103    -0.459    -0.191
   5      -0.961    -0.691     1.651     0.036    -0.462     0.245
   6      -0.825    -0.722     1.547    -0.071     0.460     0.258
   7      -0.579    -0.801     1.380    -0.034    -0.013     0.530
   8      -0.678    -0.549     1.227     0.061     0.117    -0.113
   9      -0.895    -0.863     1.758     0.133    -0.015     0.086
  10      -0.901    -1.035     1.936     0.002     0.027    -0.066
  11      -0.697    -0.602     1.299     0.088    -0.298     0.127
  12      -0.669    -0.902     1.572     0.008     0.015     0.465
  13      -0.954    -0.982     1.936     0.112     0.035    -0.017
  14      -0.749    -0.785     1.533    -0.097    -0.466    -0.230
  15      -0.728    -0.718     1.446    -0.060     0.420     0.217
  16      -0.518    -0.693     1.210    -0.039    -0.005    -0.086
  17       1.364     1.517    -2.882    -0.154    -0.036    -0.105
  18       1.463     1.350    -2.813    -0.231    -0.019    -0.144
  19       1.451     1.529    -2.981    -0.067     0.096     0.151
  20       1.533     1.396    -2.930     0.154     0.014    -0.073
  21       1.658     1.273    -2.931    -0.106     0.090     0.043
  22       1.313     1.411    -2.724    -0.087     0.133     0.181
  23       1.278     1.593    -2.871     0.042    -0.061    -0.064
  24       1.633     1.209    -2.842     0.048    -0.071     0.126
  25      -1.108    -0.280     1.388     0.218    -0.723     0.658
  26      -0.154    -0.983     1.137    -0.927     0.805     0.637
  27       0.273    -0.168    -0.106    -0.462    -0.019    -0.826
  28       0.766    -0.322    -0.444     0.033     0.590     0.973
  29       0.357    -0.869     0.511    -1.010    -0.095     0.876
  30      -0.457    -1.207     1.664    -0.654    -0.397    -0.030
  31      -1.237     1.562    -0.326     0.248     0.613    -0.329
  32      -1.461     1.019     0.442     1.062     0.010     0.236
  33      -0.549     0.337     0.213    -0.425     0.678     0.005
  34      -0.885     0.828     0.057    -0.993    -1.132    -0.086
  35      -0.865     1.331    -0.466    -0.093     1.004     0.987
  36       1.074    -1.025    -0.050     0.195    -1.437     0.308
  37      -1.177    -0.746     1.922     0.234     0.096    -0.671
  38      -0.059    -1.743     1.802     0.962     1.416     0.414
  39      -0.251    -0.081     0.331     0.260    -0.343     0.908
  40      -0.484    -0.231     0.715     0.206     0.821     0.249
  41      -4.393     4.052     0.342    -3.770     1.873    -3.577
  42      -3.455     1.015     2.440     4.925     1.755     4.789
  43       5.339    -6.685     1.346    -0.939    -4.986    -1.485
  44      -4.750     0.871     3.880     5.696    -2.869    -4.671
  45      -3.366     4.046    -0.679    -5.632    -1.530     5.498
  46       5.392    -8.017     2.624    -0.673     5.282    -1.144
  47      -5.678     4.117     1.561    -3.286     2.261    -3.352
  48       6.482    -5.460    -1.021     0.660    -3.388     0.127
  49      -1.695     1.133     0.561     5.406     1.792     4.158
  50       4.915    -4.715    -0.200    -0.103     4.329     0.138
  51      -4.337     3.925     0.412    -4.659    -2.126     2.413
  52      -2.050     3.612    -1.562     5.304    -1.463    -2.327
  53      -3.755     3.046     0.709    -4.498     2.492    -3.641
  54      -0.781     0.374     0.407     5.101     1.831     3.824
  55       4.708    -7.544     2.836    -0.719    -5.064     0.708
  56      -0.724     0.276     0.448     4.700    -2.496    -3.052
  57      -4.440     4.069     0.371    -5.250    -2.087     3.740
  58       6.298    -7.177     0.878    -0.253     4.539     0.295
  59      -3.172     3.777    -0.605    -4.444     2.835    -3.724
  60       4.311    -5.263     0.952    -2.029    -5.896     0.225
[...]
  74       2.889    -5.618     2.729     0.176     5.443    -2.751
  75      -2.581     2.829    -0.248    -5.920    -2.036     5.173
  76      -2.864     4.136    -1.272     4.659    -1.967    -3.640
  77      -4.736     2.320     2.416    -3.042     3.830    -4.130
  78      -4.587     2.564     2.023     4.799     3.094     4.043
  79       6.324    -5.850    -0.474    -1.201    -5.528    -1.029
  80      -4.269     3.501     0.769     5.607    -2.799    -4.666
  81      -4.441     3.926     0.515    -4.177    -3.424     4.751
  82       3.754    -6.645     2.891    -2.078     5.262     0.128
  83      -4.701     1.179     3.522    -4.421     2.354    -3.364
  84       5.152    -6.107     0.955    -0.028    -4.091     0.485
  85      -1.466     1.750    -0.284     4.899     1.905     5.088
  86       6.282    -4.553    -1.728    -0.699     2.254    -0.217
  87      -5.192     3.743     1.450    -3.591    -3.225     3.675
  88      -3.130     4.323    -1.192     6.303    -3.006    -1.576

 Total hyperfine coupling parameters after diagonalization (MHz)
 (convention: |A_zz| > |A_xx| > |A_yy|)
  ion      A_xx      A_yy      A_zz     asymmetry (A_yy - A_xx)/ A_zz
   1       2.021     1.696     4.083      -0.080
   2       2.156     1.739     4.361      -0.096
   3       1.684     1.449     4.270      -0.055
   4       2.856     2.495     5.101      -0.071
   5       2.447     2.086     4.897      -0.074
   6       2.168     1.883     4.512      -0.063
   7       1.509     1.161     3.588      -0.097
   8       1.184     0.997     2.952      -0.064
   9       0.963     0.694     3.470      -0.077
  10      -0.085     0.051     2.890       0.047
  11       1.238     0.991     3.138      -0.079
  12       2.031     1.713     4.357      -0.073
  13       0.395     0.168     3.186      -0.071
  14       1.706     1.427     4.030      -0.069
  15       1.697     1.487     3.906      -0.054
  16       1.046     0.851     2.770      -0.070
  17      14.190    10.035    14.534      -0.286
  18      14.898    10.907    15.371      -0.260
  19      16.139    11.733    16.289      -0.271
  20      14.605    10.377    14.942      -0.283
  21      14.815    10.634    15.255      -0.274
  22      12.931     8.922    13.123      -0.306
  23      13.150     9.004    13.476      -0.308
  24      13.711     9.657    14.143      -0.287
  25      93.524    92.393    95.586      -0.012
  26      97.821    95.560    99.000      -0.023
  27      93.942    92.696    94.621      -0.013
  28      97.219    95.503    98.097      -0.017
  29      98.506    96.477    99.496      -0.020
  30      98.925    97.460   100.801      -0.015
  31      94.028    92.476    95.690      -0.016
  32     100.753    98.502   101.820      -0.022
  33      95.082    93.734    95.524      -0.014
  34      96.967    94.556    97.924      -0.025
  35      93.248    91.352    95.018      -0.020
  36      94.284    93.555    97.003      -0.008
  37      95.307    94.738    98.146      -0.006
  38      98.389    96.724   101.638      -0.016
  39      99.622    98.627   100.723      -0.010
  40      93.858    93.241    95.351      -0.006
  41       4.273     0.201    13.763      -0.296
  42       6.468     1.256    16.464      -0.317
  43       4.333    -1.500    14.487      -0.403
  44       5.986    -0.963    16.963      -0.410
  45       7.708     4.095    20.911      -0.173
  46       9.481     2.757    20.451      -0.329
  47       7.214     1.088    15.584      -0.393
  48       3.909     0.670    14.004      -0.231
  49       6.173     1.877    15.942      -0.269
  50       4.047     1.974    14.089      -0.147
  51       7.043     1.276    15.239      -0.378
  52       3.452     0.603    13.451      -0.212
  53       5.653     1.458    15.460      -0.271
  54       4.265     0.323    13.326      -0.296
  55       7.752     1.521    18.111      -0.344
  56       4.702     1.687    13.553      -0.222
  57       6.127     0.968    16.677      -0.309
  58       7.499     1.967    18.046      -0.307
  59       5.739     2.852    16.775      -0.172
  60       4.008     1.145    16.045      -0.178
[...]
  74       6.094     0.862    16.213      -0.323
  75       6.778     3.105    19.427      -0.189
  76       1.152    -0.987    12.469      -0.172
  77       3.526    -1.359    13.554      -0.360
  78       8.549     3.035    18.891      -0.292
  79       4.476     0.720    16.749      -0.224
  80       5.641     0.927    17.881      -0.264
  81       5.115     1.330    17.279      -0.219
  82       6.951     1.278    17.223      -0.329
  83       7.017     0.444    15.160      -0.434
  84       6.317     1.679    15.483      -0.300
  85       5.969     3.012    17.216      -0.172
  86       3.719     1.437    12.956      -0.176
  87       7.249     1.518    16.646      -0.344
  88       5.404    -0.487    15.595      -0.378

 stress matrix after NEB project (eV)
    -43.01010     -1.66709      4.53346
     -1.66918    -44.85486     -0.24839
      4.51882     -0.22514    -59.54346
  FORCES: max atom, RMS     2.466135    1.104505
  FORCE total and by dimension   10.361171    2.083890
  Stress total and by dimension   86.335978   59.543459

 total charge

[...]

 magnetization (x)

# of ion       s       p       d       tot
    1        0.002   0.000   0.000   0.002
    2        0.002   0.000   0.000   0.003
    3        0.002   0.001   0.000   0.002
    4        0.003   0.001   0.000   0.003
    5        0.002   0.000   0.000   0.002
    6        0.002   0.000   0.000   0.002
    7        0.002   0.000   0.000   0.002
    8        0.001   0.001   0.000   0.002
    9        0.001   0.001   0.000   0.002
   10        0.001   0.000   0.000   0.001
   11        0.001   0.000   0.000   0.002
   12        0.002   0.000   0.000   0.002
   13        0.001   0.001   0.000   0.002
   14        0.002  -0.000   0.000   0.002
   15        0.002   0.000   0.000   0.002
   16        0.001   0.001   0.000   0.002
   17        0.007   0.002   0.001   0.011
   18        0.008   0.002   0.001   0.011
   19        0.008   0.003   0.001   0.012
   20        0.008   0.002   0.001   0.011
   21        0.007   0.003   0.001   0.011
   22        0.006   0.002   0.001   0.009
   23        0.007   0.002   0.001   0.009
   24        0.007   0.002   0.001   0.010
   25        0.014   0.029   2.709   2.753
   26        0.016   0.030   2.759   2.804
   27        0.014   0.030   2.744   2.789
   28        0.015   0.030   2.768   2.813
   29        0.016   0.030   2.740   2.786
   30        0.016   0.030   2.751   2.798
   31        0.015   0.030   2.722   2.767
   32        0.017   0.031   2.753   2.800
   33        0.015   0.030   2.734   2.779
   34        0.015   0.030   2.771   2.816
   35        0.015   0.030   2.726   2.771
   36        0.014   0.030   2.768   2.812
   37        0.015   0.030   2.738   2.784
   38        0.016   0.030   2.773   2.819
   39        0.016   0.032   2.753   2.801
   40        0.015   0.029   2.749   2.793
   41        0.002   0.024   0.000   0.026
   42        0.002   0.039   0.000   0.041
   43        0.002   0.020   0.000   0.022
   44        0.002   0.037   0.000   0.039
   45        0.003   0.063   0.000   0.065
   46        0.003   0.070   0.000   0.072
   47        0.002   0.042   0.000   0.044
   48        0.002   0.017   0.000   0.019
   49        0.002   0.037   0.000   0.039
   50        0.002   0.027   0.000   0.029
   51        0.002   0.040   0.000   0.042
   52        0.002   0.003   0.000   0.005
   53        0.002   0.037   0.000   0.039
   54        0.002   0.024   0.000   0.026
   55        0.002   0.055   0.000   0.057
   56        0.002   0.031   0.000   0.033
   57        0.002   0.032   0.000   0.034
   58        0.002   0.047   0.000   0.050
   59        0.002   0.040   0.000   0.042
   60        0.002   0.028   0.000   0.030
[...]
   74        0.002   0.047   0.000   0.049
   75        0.003   0.051   0.000   0.054
   76        0.001   0.010   0.000   0.011
   77        0.001   0.018   0.000   0.020
   78        0.002   0.066   0.000   0.068
   79        0.002   0.023   0.000   0.025
   80        0.002   0.042   0.000   0.045
   81        0.002   0.036   0.000   0.038
   82        0.002   0.040   0.000   0.042
   83        0.002   0.044   0.000   0.046
   84        0.002   0.043   0.000   0.045
   85        0.002   0.031   0.000   0.033
   86        0.002   0.017   0.000   0.019
   87        0.002   0.042   0.000   0.044
   88        0.002   0.028   0.000   0.030
tot          0.425   2.159  43.967  46.551