 vasp.5.4.4.18Apr17-6-g9f103f2a35 (build Dec 02 2020 12:53:39) complex

 executed on             LinuxIFC date 2021.07.31  07:24:01

 INCAR:
 POTCAR:    PAW_PBE Na_pv 19Sep2006
 POTCAR:    PAW_PBE Mg_pv 13Apr2007
 POTCAR:    PAW_PBE Mn_pv 02Aug2007
 POTCAR:    PAW_PBE O 08Apr2002

 POTCAR:    PAW_PBE Na_pv 19Sep2006
   VRHFIN =Na: p6s1

   TITEL  = PAW_PBE Na_pv 19Sep2006
   POMASS =   22.990; ZVAL   =    7.000    mass and valenz
   ENMAX  =  259.561; ENMIN  =  194.671 eV

 POTCAR:    PAW_PBE Mg_pv 13Apr2007
   VRHFIN =Mg: p6s2

   TITEL  = PAW_PBE Mg_pv 13Apr2007
   POMASS =   24.305; ZVAL   =    8.000    mass and valenz
   ENMAX  =  403.929; ENMIN  =  302.947 eV

 POTCAR:    PAW_PBE Mn_pv 02Aug2007
   VRHFIN =Mn: 3p4s3d

   TITEL  = PAW_PBE Mn_pv 02Aug2007
   POMASS =   54.938; ZVAL   =   13.000    mass and valenz
   ENMAX  =  269.864; ENMIN  =  202.398 eV

 POTCAR:    PAW_PBE O 08Apr2002
   VRHFIN =O: s2p4

   TITEL  = PAW_PBE O 08Apr2002
   POMASS =   16.000; ZVAL   =    6.000    mass and valenz
   ENMAX  =  400.000; ENMIN  =  300.000 eV

 Optimization of the real space projectors (new method)

 maximal supplied QI-value         = 17.01
 optimisation between [QCUT,QGAM] = [ 10.20, 20.41] = [ 29.16,116.64] Ry
 Optimized for a Real-space Cutoff    1.30 Angstroem

   l    n(q)    QCUT    max X(q) W(low)/X(q) W(high)/X(q)  e(spline)
   1      7    10.205     4.940    0.23E-03    0.84E-03    0.11E-06
   1      7    10.205     6.253    0.40E-03    0.13E-02    0.18E-06
   0      8    10.205    37.438    0.23E-03    0.37E-03    0.42E-07
   0      8    10.205     9.606    0.16E-03    0.26E-03    0.31E-07
 Optimization of the real space projectors (new method)

[...]

   l    n(q)    QCUT    max X(q) W(low)/X(q) W(high)/X(q)  e(spline)
   1      8    10.239     3.658    0.23E-03    0.30E-03    0.98E-07
   1      8    10.239     5.612    0.32E-03    0.65E-03    0.21E-06
   2      7    10.239    55.373    0.42E-03    0.45E-03    0.65E-07
   2      7    10.239    50.863    0.43E-03    0.48E-03    0.67E-07
   0      8    10.239    79.536    0.11E-03    0.21E-03    0.56E-07
   0      8    10.239    38.668    0.96E-04    0.19E-03    0.52E-07
 Optimization of the real space projectors (new method)

 maximal supplied QI-value         = 24.76
 optimisation between [QCUT,QGAM] = [ 10.15, 20.30] = [ 28.85,115.39] Ry
 Optimized for a Real-space Cutoff    1.38 Angstroem

   l    n(q)    QCUT    max X(q) W(low)/X(q) W(high)/X(q)  e(spline)
   0      8    10.150    20.381    0.22E-03    0.32E-03    0.29E-06
   0      8    10.150    15.268    0.23E-03    0.35E-03    0.30E-06
   1      8    10.150     5.964    0.46E-03    0.53E-03    0.21E-06
   1      8    10.150     5.382    0.38E-03    0.45E-03    0.19E-06
  PAW_PBE Na_pv 19Sep2006               :
  PAW_PBE Mg_pv 13Apr2007               :
  PAW_PBE Mn_pv 02Aug2007               :
  PAW_PBE O 08Apr2002                   :

 POSCAR: Na Mg Mn  O
  positions in cartesian coordinates

 METAGGA = SCAN     LMAXTAU =  6    LMIXTAU =  F

 VTST: version 3.2, (02/03/18)

 CHAIN: initializing optimizer

 OPT: Using VASP Dynamics algorithm
 CHAIN: Read ICHAIN            0

 POSCAR: Na Mg Mn  O
  positions in cartesian coordinates

 ion  position               nearest neighbor table
   1  0.221  0.799  0.243-  51 2.26  77 2.32  42 2.36
   2  0.454  0.970  0.744-  81 2.28  59 2.28  56 2.28  46 2.37  31 2.84  29 2.90
   3  0.188  0.152  0.740-  44 2.29  48 2.30  47 2.33
   4  0.955  0.816  0.744-  70 2.34  69 2.37
   5  0.946  0.964  0.239-  41 2.23  67 2.27  54 2.37  25 2.72  27 2.88
   6  0.443  0.661  0.261-  88 2.18  74 2.30  87 2.32  79 2.34
   7  0.121  0.629  0.754-  83 2.16  80 2.18  70 2.28
   8  0.464  0.534  0.749-  85 2.18  82 2.25  71 2.38  33 2.88  35 2.93
   9  0.733  0.601  0.247-  74 2.23  65 2.26  66 2.34  34 2.90
  10  0.932  0.422  0.261-  64 2.22  55 2.27  75 2.31  39 2.87
  11  0.661  0.020  0.255-  53 2.26  54 2.27  62 2.28
  12  0.609  0.331  0.758-  71 2.25  60 2.35  28 2.93
  13  0.731  0.946  0.752-  56 2.19  59 2.30  72 2.38
  14  0.932  0.306  0.748-  60 2.30  57 2.30  80 2.35
  15  0.465  0.175  0.257-  52 2.28
  16  0.207  0.302  0.250-  50 2.19  41 2.34  78 2.35  87 2.37
  17  0.598  0.301  0.009-  66 2.03  43 2.04  53 2.05  49 2.06  60 2.15  71 2.18  29 2.82  26 2.83
                            37 2.84  30 2.84
  18  0.294  0.150  0.493-  50 1.97  44 2.02  51 2.15  52 2.17  45 2.18  46 2.21  27 2.84
  19  0.097  0.313  0.993-  83 1.98  55 2.04  48 2.05  41 2.13  78 2.20  61 2.21  38 2.79  37 2.83

  20  0.798  0.153  0.515-  57 1.97  63 2.07  56 2.08  64 2.08  62 2.13  58 2.15  39 2.81  40 2.82
                            31 2.82  28 2.85
  21  0.103  0.812  0.999-  84 2.02  42 2.07  47 2.08  77 2.08  67 2.08  73 2.13  29 2.84
  22  0.803  0.650  0.503-  68 1.99  76 2.04  69 2.06  70 2.08  75 2.08  36 2.80  35 2.84
  23  0.605  0.812  0.004-  72 2.05  59 2.06  54 2.07  65 2.10  85 2.14  79 2.14  30 2.78  25 2.83

  24  0.300  0.658  0.504-  86 2.01  82 2.03  87 2.05  81 2.06  88 2.06  80 2.18  36 2.81
  25  0.931  0.972  0.997-  61 1.90  41 1.90  47 1.91  54 1.93  72 1.96  67 1.98   5 2.72  23 2.83
                            34 2.90  30 2.91  26 2.95
  26  0.272  0.143  0.997-  43 1.86  48 1.91  49 1.93  42 1.94  47 1.94  41 2.10  29 2.82  17 2.83
                            33 2.84  25 2.95
  27  0.967  0.987  0.495-  63 1.85  69 1.88  44 1.92  50 1.92  76 1.98  58 2.04  18 2.84  40 2.87
                             5 2.88  32 2.96  36 2.96
  28  0.631  0.315  0.499-  57 1.87  62 1.89  46 1.91  75 1.93  68 1.97  52 2.00  31 2.81  20 2.85
                            39 2.91  12 2.93  35 2.93
  29  0.430  0.976  0.001-  42 1.89  84 1.93  49 1.96  53 1.98  59 1.99  79 2.06  17 2.82  30 2.82
                            26 2.82  21 2.84   2 2.90  38 2.96
  30  0.756  0.132  0.999-  59 1.87  53 1.88  61 1.91  55 1.91  54 1.94  60 2.00  23 2.78  29 2.82
                            17 2.84  37 2.91  25 2.91
  31  0.474  0.991  0.492-  62 1.89  56 1.90  46 1.94  88 1.94  51 1.95  81 2.00  40 2.81  28 2.81
                            20 2.82   2 2.84  36 3.03
  32  0.140  0.327  0.513-  58 1.85  45 1.87  64 1.88  50 1.92  87 1.97  80 1.97  39 2.80  35 2.93
                            27 2.96
  33  0.427  0.471  0.001-  78 1.87  85 1.88  48 1.92  43 1.93  65 1.95  71 2.00  38 2.84  26 2.84
                             8 2.88  34 2.92
  34  0.763  0.637  0.990-  73 1.83  72 1.89  71 1.90  65 1.91  67 1.93  66 1.99  37 2.87   9 2.90
                            25 2.90  33 2.92
  35  0.477  0.498  0.491-  74 1.85  52 1.87  68 1.89  82 1.93  45 1.95  87 1.96  22 2.84  40 2.88
                             8 2.93  28 2.93  32 2.93
  36  0.126  0.806  0.515-  81 1.78  70 1.88  44 1.92  76 1.94  86 1.99  51 2.15  22 2.80  24 2.81
                            39 2.86  27 2.96  31 3.03
  37  0.925  0.468  0.998-  66 1.80  55 1.89  77 1.95  83 1.97  60 1.98  73 1.99  19 2.83  17 2.84
                            34 2.87  30 2.91  38 2.94
  38  0.263  0.635  0.001-  77 1.90  83 1.90  85 1.90  84 1.93  78 1.93  79 1.97  19 2.79  33 2.84
                            37 2.94  29 2.96
  39  0.967  0.477  0.513-  64 1.89  80 1.91  86 1.92  57 1.94  70 2.00  75 2.00  32 2.80  20 2.81
                            36 2.86  10 2.87  28 2.91
  40  0.636  0.830  0.492-  82 1.85  63 1.91  56 1.94  88 1.95  69 1.99  74 2.00  31 2.81  20 2.82
                            27 2.87  35 2.88
  41  0.086  0.128  0.094-  25 1.90  26 2.10  19 2.13   5 2.23  16 2.34
  42  0.279  0.988  0.095-  29 1.89  26 1.94  21 2.07   1 2.36
  43  0.417  0.303  0.091-  26 1.86  33 1.93  17 2.04
  44  0.124  0.978  0.588-  36 1.92  27 1.92  18 2.02   3 2.29
  45  0.313  0.346  0.592-  32 1.87  35 1.95  18 2.18
  46  0.483  0.151  0.596-  28 1.91  31 1.94  18 2.21   2 2.37
  47  0.100  0.989  0.905-  25 1.91  26 1.94  21 2.08   3 2.33
  48  0.273  0.305  0.907-  26 1.91  33 1.92  19 2.05   3 2.30
  49  0.429  0.137  0.902-  26 1.93  29 1.96  17 2.06
  50  0.127  0.165  0.414-  27 1.92  32 1.92  18 1.97  16 2.19
  51  0.301  0.968  0.397-  31 1.95  36 2.15  18 2.15   1 2.26
  52  0.481  0.343  0.400-  35 1.87  28 2.00  18 2.17  15 2.28
  53  0.604  0.128  0.101-  30 1.88  29 1.98  17 2.05  11 2.26
  54  0.784  0.989  0.097-  25 1.93  30 1.94  23 2.07  11 2.27   5 2.37
  55  0.916  0.301  0.085-  37 1.89  30 1.91  19 2.04  10 2.27
  56  0.611  0.969  0.597-  31 1.90  40 1.94  20 2.08  13 2.19   2 2.28
  57  0.786  0.322  0.596-  28 1.87  39 1.94  20 1.97  14 2.30
  58  0.994  0.163  0.602-  32 1.85  27 2.04  20 2.15
  59  0.599  0.981  0.904-  30 1.87  29 1.99  23 2.06   2 2.28  13 2.30
  60  0.770  0.301  0.895-  37 1.98  30 2.00  17 2.15  14 2.30  12 2.35
  61  0.903  0.114  0.903-  25 1.90  30 1.91  19 2.21
  62  0.628  0.157  0.403-  31 1.89  28 1.89  20 2.13  11 2.28
  63  0.809  0.989  0.410-  27 1.85  40 1.91  20 2.07
  64  0.982  0.326  0.422-  32 1.88  39 1.89  20 2.08  10 2.22
  65  0.604  0.625  0.091-  34 1.91  33 1.95  23 2.10   9 2.26
  66  0.783  0.482  0.087-  37 1.80  34 1.99  17 2.03   9 2.34
  67  0.915  0.797  0.091-  34 1.93  25 1.98  21 2.08   5 2.27
  68  0.623  0.481  0.586-  35 1.89  28 1.97  22 1.99
  69  0.807  0.835  0.587-  27 1.88  40 1.99  22 2.06   4 2.37
  70  0.973  0.648  0.608-  36 1.88  39 2.00  22 2.08   7 2.28   4 2.34
  71  0.597  0.482  0.901-  34 1.90  33 2.00  17 2.18  12 2.25   8 2.38
  72  0.771  0.802  0.903-  34 1.89  25 1.96  23 2.05  13 2.38
  73  0.915  0.632  0.904-  34 1.83  37 1.99  21 2.13
  74  0.616  0.655  0.393-  35 1.85  40 2.00   9 2.23   6 2.30
  75  0.802  0.471  0.408-  28 1.93  39 2.00  22 2.08  10 2.31
  76  0.981  0.822  0.409-  36 1.94  27 1.98  22 2.04
  77  0.098  0.627  0.088-  38 1.90  37 1.95  21 2.08   1 2.32
  78  0.287  0.490  0.100-  33 1.87  38 1.93  19 2.20  16 2.35
  79  0.417  0.800  0.104-  38 1.97  29 2.06  23 2.14   6 2.34
  80  0.120  0.478  0.614-  39 1.91  32 1.97   7 2.18  24 2.18  14 2.35
  81  0.296  0.837  0.590-  36 1.78  31 2.00  24 2.06   2 2.28
  82  0.489  0.668  0.581-  40 1.85  35 1.93  24 2.03   8 2.25
  83  0.100  0.487  0.905-  38 1.90  37 1.97  19 1.98   7 2.16
  84  0.275  0.805  0.911-  29 1.93  38 1.93  21 2.02
  85  0.419  0.625  0.911-  33 1.88  38 1.90  23 2.14   8 2.18
  86  0.119  0.639  0.415-  39 1.92  36 1.99  24 2.01
  87  0.299  0.484  0.407-  35 1.96  32 1.97  24 2.05   6 2.32  16 2.37
  88  0.470  0.825  0.399-  31 1.94  40 1.95  24 2.06   6 2.18

  LATTYP: Found a hexagonal cell.
 ALAT       =    10.0190000534
 C/A-ratio  =     1.1196726572

  Lattice vectors:

 A1 = (  10.0190000534,   0.0000000000,   0.0000000000)
 A2 = (  -5.0095000267,   8.6767085668,   0.0000000000)
 A3 = (   0.0000000000,   0.0000000000,  11.2180004120)

Analysis of symmetry for initial positions (statically):
 Subroutine PRICEL returns:
 Original cell was already a primitive cell.

 Routine SETGRP: Setting up the symmetry group for a
 hexagonal supercell.

 Subroutine GETGRP returns: Found  1 space group operations
 (whereof  1 operations were pure point group operations)
 out of a pool of 24 trial point group operations.

The static configuration has the point symmetry C_1 .

[...]
   4      -0.002    -0.002     3.047    -0.153     3.046
   5      -0.012    -0.010     0.174    -0.016     0.172
   6       0.000    -0.001     3.049    -0.101     3.050
   7       0.004     0.004     3.306    -0.079     3.306
   8       0.019     0.019     1.643    -0.076     1.644
   9       0.016     0.017     1.847    -0.076     1.847
  10       0.018     0.019     1.800    -0.093     1.799
  11      -0.012    -0.013     2.222    -0.065     2.222
  12       0.012     0.011     1.401    -0.058     1.402
  13       0.012     0.011     2.947    -0.094     2.948
  14      -0.005    -0.004     2.874    -0.087     2.874
  15      -0.004    -0.003     2.483    -0.121     2.483
  16       0.015     0.014     2.493    -0.101     2.494
  17       0.028     0.030    11.874     0.120    11.872
  18       0.028     0.031    11.901     0.085    11.899
  19       0.029     0.032    12.083     0.100    12.079
  20       0.037     0.042    13.362     0.132    13.357
  21       0.061     0.066    13.432     0.134    13.427
  22       0.035     0.038    12.004     0.118    12.002
  23       0.029     0.033    11.647     0.105    11.643
  24       0.050     0.052    12.884     0.130    12.882
  25     160.938   160.917    95.196  -139.121    95.218
  26     162.044   162.027    97.253  -140.291    97.269
  27     161.847   161.832    99.602  -139.968    99.618
  28     161.314   161.294    97.893  -139.348    97.912
  29     163.443   163.421    98.470  -142.307    98.493
  30     160.103   160.083    93.522  -137.867    93.542
  31     161.161   161.138    95.000  -139.233    95.023
  32     159.758   159.742    92.461  -137.435    92.478
  33     160.829   160.805    97.884  -138.751    97.908
  34     159.314   159.290    91.988  -136.848    92.012
  35     159.807   159.783    94.440  -137.447    94.464
  36     158.995   158.979    93.412  -136.360    93.427
  37     160.718   160.699    96.295  -138.545    96.314
  38     160.953   160.934    95.485  -139.027    95.503
  39     161.064   161.053    96.476  -139.185    96.487
  40     161.911   161.888    97.536  -140.063    97.558
  41       0.471     0.474     4.681    -0.343     4.679
  42       2.774     2.779     9.132    -2.777     9.126
  43       3.097     3.103     8.933    -3.167     8.926
  44       1.626     1.630     5.489    -1.645     5.485
  45       2.779     2.783     7.580    -2.862     7.576
  46       2.887     2.890     9.826    -2.859     9.822
  47       2.738     2.736     7.699    -2.810     7.701
  48       2.474     2.475     8.046    -2.485     8.044
  49       2.020     2.025     8.783    -1.929     8.778
  50       1.565     1.566     5.287    -1.584     5.286
  51      -0.083    -0.081     3.446     0.235     3.444
  52       2.285     2.290     7.313    -2.310     7.307
  53       2.886     2.887     9.734    -2.866     9.733
  54       1.469     1.473     5.720    -1.450     5.716
  55       2.292     2.299     6.893    -2.352     6.886
  56       2.767     2.772     9.799    -2.725     9.794
  57       2.606     2.611     8.609    -2.612     8.605
  58       1.279     1.283     5.935    -1.220     5.931
  59       2.875     2.880     8.752    -2.912     8.746
  60       0.931     0.935     6.211    -0.793     6.207
[...]
  74       2.338     2.345     7.514    -2.380     7.507
  75       0.974     0.972     4.833    -0.906     4.835
  76       1.571     1.578     8.564    -1.406     8.557
  77       1.805     1.808     6.215    -1.816     6.212
  78       2.797     2.804     9.000    -2.822     8.993
  79      -0.262    -0.256     3.244     0.421     3.237
  80       2.595     2.599     8.537    -2.598     8.533
  81       3.660     3.667     8.745    -3.860     8.738
  82       2.625     2.626     7.941    -2.664     7.941
  83       2.314     2.312     7.249    -2.333     7.250
  84       1.825     1.829     6.630    -1.823     6.626
  85       3.377     3.385     9.670    -3.454     9.663
  86       1.724     1.727     8.420    -1.579     8.417
  87       1.745     1.744     6.600    -1.700     6.600
  88       1.930     1.936     7.737    -1.871     7.732

 Dipolar hyperfine coupling parameters (MHz)
  ion      A_xx      A_yy      A_zz      A_xy      A_xz      A_yz
   1      -0.748    -0.640     1.388     0.161    -0.321     0.136
   2      -0.905    -0.944     1.849     0.141    -0.025     0.066
   3      -0.757    -0.612     1.369     0.088     0.430    -0.153
   4      -0.779    -0.682     1.461    -0.107    -0.474    -0.246
   5      -0.908    -1.070     1.978     0.129    -0.078     0.005
   6      -0.839    -0.668     1.508    -0.062     0.578     0.375
   7      -0.919    -0.815     1.733     0.069     0.450    -0.225
   8      -0.794    -0.944     1.738     0.119    -0.025    -0.063
   9      -0.635    -0.761     1.396     0.023    -0.180    -0.118
  10      -0.828    -0.948     1.775     0.122     0.052     0.095
  11      -0.678    -0.929     1.606    -0.028     0.025    -0.488
  12      -0.587    -0.668     1.255    -0.062    -0.119     0.087
  13      -0.641    -0.837     1.478    -0.030     0.062     0.426
  14      -0.795    -0.704     1.499    -0.030    -0.450    -0.347
  15      -0.775    -0.718     1.493    -0.150     0.549     0.213
  16      -0.723    -0.666     1.389     0.163    -0.368     0.023
  17       1.418     1.396    -2.814     0.142     0.020    -0.018
  18       1.489     1.235    -2.724     0.026    -0.094    -0.096
  19       1.527     1.279    -2.806    -0.051    -0.054    -0.090
  20       1.357     1.525    -2.882    -0.055    -0.011     0.284
  21       1.497     1.434    -2.931     0.125     0.138     0.050
  22       1.238     1.587    -2.825     0.055     0.162     0.013
  23       1.245     1.558    -2.803    -0.049    -0.016    -0.029
  24       1.630     1.258    -2.888     0.097    -0.203    -0.045
  25       0.169     0.668    -0.837     0.497    -0.402    -0.617
  26       0.690    -0.468    -0.222    -0.038    -0.685    -0.359
  27      -1.326    -1.653     2.979    -0.327    -0.946     1.608
  28       0.744     0.018    -0.763     0.991    -0.114     0.689
  29       0.442     0.427    -0.868    -0.509     1.196    -0.641
  30       0.769     1.801    -2.569     0.253    -0.321    -1.262
  31       2.033     0.147    -2.179    -1.372    -0.626    -1.940
  32      -0.791     0.800    -0.009    -1.435    -0.160    -0.865
  33       0.512     0.087    -0.599     0.717     0.019    -0.315
  34      -0.927     0.913     0.015    -0.150     0.493    -0.083
  35       0.816    -0.389    -0.427     1.337    -0.130     1.667
  36      -2.052    -0.207     2.259    -1.690    -0.750    -0.160
  37      -1.170     0.216     0.954     0.847     1.673    -0.889
  38      -1.366     1.672    -0.307     0.521    -0.614    -0.143
  39       0.077     0.563    -0.639    -0.285     0.305     0.010
  40       0.429     0.109    -0.538    -1.843     0.362     0.663
  41      -2.733     2.816    -0.083    -4.616     2.171    -5.243
  42      -3.779     2.954     0.825     4.584     3.929     3.437
  43       6.086    -6.322     0.236     0.482    -4.672    -2.832
  44      -2.126    -0.677     2.803     4.071    -4.725    -3.058
  45      -5.177     3.869     1.308    -4.695    -2.119     3.818
  46       6.742    -5.216    -1.525     0.626     4.290    -0.135
  47      -4.318     3.097     1.222    -5.096     2.329    -2.673
  48       4.902    -5.873     0.971     2.454    -5.255    -0.109
  49      -2.813     1.802     1.011     5.119     3.120     4.935
  50       4.534    -5.942     1.409    -0.691     3.410    -1.212
  51      -3.855     4.101    -0.245    -5.039    -3.786     1.897
  52      -1.855     1.456     0.399     5.890    -2.716    -3.774
  53      -3.474     4.140    -0.666    -5.114     1.471    -3.357
  54      -2.460     3.755    -1.295     5.493     1.573     2.843
  55       4.170    -6.670     2.500     0.913    -4.640     1.024
  56      -1.115     2.549    -1.434     5.741    -0.471    -1.750
  57      -3.501     2.545     0.956    -5.063    -3.146     3.073
  58       5.214    -4.883    -0.331    -2.204     3.603    -0.333
  59      -3.054     3.384    -0.331    -4.560     1.606    -4.469
  60       6.552    -5.370    -1.182    -0.012    -3.643    -0.525
[...]
  74       7.721    -7.390    -0.330     0.450     4.319     0.039
  75      -3.569     2.287     1.282    -4.690    -1.963     4.844
  76       1.202    -0.269    -0.933     7.791    -1.183    -2.792
  77      -4.249     2.207     2.043    -4.911     3.286    -4.689
  78      -3.587     5.077    -1.491     5.808     2.331     3.310
  79       5.137    -5.371     0.234     1.466    -4.990     0.596
  80      -4.322     4.233     0.089     3.498    -3.687    -3.447
  81      -4.967     3.892     1.076    -6.338    -1.147     3.548
  82       6.210    -6.102    -0.109     0.419     5.151     2.258
  83      -2.355     1.846     0.509    -5.225     1.008    -3.973
  84       5.461    -7.056     1.594    -0.087    -3.736    -1.564
  85      -3.062     2.684     0.379     5.764     2.062     5.254
  86       6.435    -4.270    -2.164     0.539     3.868     0.788
  87      -3.916     3.504     0.412    -4.192    -1.331     4.744
  88      -3.722     1.102     2.620     3.941    -4.127    -4.000

 Total hyperfine coupling parameters after diagonalization (MHz)
 (convention: |A_zz| > |A_xx| > |A_yy|)
  ion      A_xx      A_yy      A_zz     asymmetry (A_yy - A_xx)/ A_zz
   1       1.893     1.506     3.861      -0.100
   2       0.512     0.226     3.145      -0.091
   3       2.039     1.720     4.071      -0.078
   4       2.432     2.082     4.625      -0.076
   5      -0.969    -0.666     2.153       0.141
   6       2.395     2.011     4.745      -0.081
   7       2.526     2.262     5.131      -0.051
   8       0.915     0.633     3.384      -0.083
   9       1.197     1.077     3.265      -0.037
  10       1.044     0.775     3.579      -0.075
  11       1.546     1.201     3.920      -0.088
  12       0.837     0.701     2.669      -0.051
  13       2.311     2.029     4.503      -0.063
  14       2.170     1.944     4.506      -0.050
  15       1.879     1.455     4.115      -0.103
  16       1.943     1.593     3.945      -0.089
  17      13.137     9.058    13.421      -0.304
  18      13.133     9.171    13.393      -0.296
  19      13.351     9.271    13.616      -0.300
  20      14.699    10.457    14.916      -0.284
  21      14.765    10.491    15.025      -0.284
  22      13.237     9.170    13.597      -0.299
  23      12.880     8.840    13.209      -0.306
  24      14.117     9.985    14.545      -0.284
  25      95.080    94.119    96.453      -0.010
  26      97.072    96.398    98.339      -0.007
  27      98.093    97.460   103.300      -0.006
  28      97.799    96.546    99.393      -0.013
  29      98.475    96.870   100.135      -0.016
  30      94.252    90.618    95.756      -0.038
  31      95.789    91.470    97.809      -0.044
  32      92.421    90.645    94.368      -0.019
  33      97.651    97.100    98.974      -0.006
  34      92.212    90.869    92.956      -0.014
  35      94.858    92.038    96.496      -0.029
  36      94.186    90.274    95.821      -0.041
  37      96.928    93.729    98.284      -0.033
  38      95.413    93.805    97.292      -0.017
  39      96.542    95.725    97.193      -0.008
  40      97.387    95.598    99.690      -0.018
  41       1.258    -0.852    13.630      -0.155
  42       7.444     2.352    17.582      -0.290
  43       7.535     1.427    17.817      -0.343
  44       3.270    -0.547    13.734      -0.278
  45       6.284     0.373    16.070      -0.368
  46       6.542     4.517    18.408      -0.110
  47       7.146     0.686    15.270      -0.423
  48       5.797     1.449    16.887      -0.257
  49       5.652     2.656    18.026      -0.166
  50       4.582    -0.853    12.128      -0.448
  51      -3.911     2.804    11.437       0.587
  52       5.062     0.986    15.872      -0.257
  53       7.567     3.682    17.950      -0.216
  54       3.298     0.050    13.800      -0.235
  55       5.841    -0.118    14.935      -0.399
  56       8.136     4.371    16.874      -0.223
  57       7.230     1.986    16.598      -0.316
  58       3.959     0.545    13.289      -0.257
  59       5.967     3.208    17.064      -0.162
  60       3.665     0.749    14.208      -0.205
[...]
  74       5.302     0.102    17.118      -0.304
  75       2.497    -1.413    13.422      -0.291
  76       7.116     0.938    17.616      -0.351
  77       3.864    -0.756    15.529      -0.298
  78       6.125     2.403    18.451      -0.202
  79      -2.726     0.890    11.546       0.313
  80       7.046     1.904    16.649      -0.309
  81       8.131     0.423    17.660      -0.436
  82       5.716     0.929    17.177      -0.279
  83       5.953     1.010    14.787      -0.334
  84       6.230    -0.750    14.398      -0.485
  85       6.890     2.823    19.276      -0.211
  86       5.069     3.795    16.386      -0.078
  87       4.147     0.669    14.984      -0.232
  88       5.551     1.342    16.303      -0.258

 stress matrix after NEB project (eV)
    -45.65798     -0.33402     -1.81752
     -0.35590    -50.50305     -2.54282
     -1.78495     -2.54261    -67.62499
  FORCES: max atom, RMS     3.332005    1.255467
  FORCE total and by dimension   11.777320    2.980638
  Stress total and by dimension   96.062512   67.624988

 total charge

[...]

 magnetization (x)

# of ion       s       p       d       tot
    1        0.002   0.000   0.000   0.002
    2        0.001   0.000   0.000   0.001
    3        0.002   0.001   0.000   0.002
    4        0.002   0.000   0.000   0.003
    5        0.000  -0.000   0.000   0.000
    6        0.002   0.000   0.000   0.002
    7        0.002   0.000   0.000   0.003
    8        0.001   0.001   0.000   0.002
    9        0.001   0.001   0.000   0.002
   10        0.001   0.001   0.000   0.002
   11        0.002  -0.000   0.000   0.001
   12        0.001   0.000   0.000   0.001
   13        0.002   0.000   0.000   0.003
   14        0.002   0.000   0.000   0.002
   15        0.002   0.000   0.000   0.002
   16        0.002   0.001   0.000   0.002
   17        0.007   0.001   0.001   0.009
   18        0.007   0.002   0.001   0.010
   19        0.007   0.002   0.001   0.010
   20        0.008   0.002   0.001   0.011
   21        0.008   0.003   0.001   0.011
   22        0.007   0.002   0.001   0.009
   23        0.007   0.002   0.001   0.010
   24        0.007   0.002   0.001   0.010
   25        0.014   0.030   2.755   2.800
   26        0.015   0.029   2.775   2.819
   27        0.016   0.031   2.772   2.819
   28        0.016   0.031   2.761   2.807
   29        0.015   0.028   2.806   2.850
   30        0.015   0.030   2.736   2.781
   31        0.015   0.030   2.760   2.804
   32        0.014   0.030   2.728   2.773
   33        0.016   0.030   2.751   2.797
   34        0.014   0.030   2.719   2.763
   35        0.015   0.031   2.730   2.776
   36        0.015   0.030   2.714   2.759
   37        0.015   0.029   2.749   2.793
   38        0.015   0.031   2.753   2.799
   39        0.015   0.029   2.759   2.803
   40        0.015   0.030   2.773   2.819
   41        0.002   0.003   0.000   0.004
   42        0.002   0.042   0.000   0.045
   43        0.002   0.049   0.000   0.051
   44        0.001   0.024   0.000   0.025
   45        0.002   0.044   0.000   0.046
   46        0.002   0.044   0.000   0.047
   47        0.002   0.043   0.000   0.045
   48        0.002   0.038   0.000   0.040
   49        0.002   0.028   0.000   0.031
   50        0.001   0.023   0.000   0.024
   51        0.001  -0.006   0.000  -0.005
   52        0.002   0.035   0.000   0.037
   53        0.003   0.044   0.000   0.046
   54        0.002   0.021   0.000   0.022
   55        0.002   0.035   0.000   0.037
   56        0.002   0.042   0.000   0.044
   57        0.002   0.040   0.000   0.042
   58        0.002   0.017   0.000   0.019
   59        0.002   0.045   0.000   0.047
   60        0.002   0.010   0.000   0.012
[...]
   74        0.002   0.035   0.000   0.037
   75        0.001   0.012   0.000   0.014
   76        0.003   0.020   0.000   0.023
   77        0.002   0.027   0.000   0.028
   78        0.002   0.043   0.000   0.045
   79        0.001  -0.010   0.000  -0.008
   80        0.002   0.040   0.000   0.042
   81        0.002   0.058   0.000   0.060
   82        0.002   0.041   0.000   0.043
   83        0.002   0.035   0.000   0.037
   84        0.002   0.026   0.000   0.028
   85        0.002   0.053   0.000   0.056
   86        0.002   0.024   0.000   0.026
   87        0.002   0.026   0.000   0.027
   88        0.002   0.028   0.000   0.030
tot          0.420   2.079  44.050  46.549