 vasp.5.4.4.18Apr17-6-g9f103f2a35 (build Dec 02 2020 12:53:39) complex

 executed on             LinuxIFC date 2021.08.03  01:03:50

 INCAR:
 POTCAR:    PAW_PBE Na_pv 19Sep2006
 POTCAR:    PAW_PBE Mg_pv 13Apr2007
 POTCAR:    PAW_PBE Mn_pv 02Aug2007
 POTCAR:    PAW_PBE O 08Apr2002

 POTCAR:    PAW_PBE Na_pv 19Sep2006
   VRHFIN =Na: p6s1

   TITEL  = PAW_PBE Na_pv 19Sep2006
   POMASS =   22.990; ZVAL   =    7.000    mass and valenz
   ENMAX  =  259.561; ENMIN  =  194.671 eV

 POTCAR:    PAW_PBE Mg_pv 13Apr2007
   VRHFIN =Mg: p6s2

   TITEL  = PAW_PBE Mg_pv 13Apr2007
   POMASS =   24.305; ZVAL   =    8.000    mass and valenz
   ENMAX  =  403.929; ENMIN  =  302.947 eV

 POTCAR:    PAW_PBE Mn_pv 02Aug2007
   VRHFIN =Mn: 3p4s3d

   TITEL  = PAW_PBE Mn_pv 02Aug2007
   POMASS =   54.938; ZVAL   =   13.000    mass and valenz
   ENMAX  =  269.864; ENMIN  =  202.398 eV

 POTCAR:    PAW_PBE O 08Apr2002
   VRHFIN =O: s2p4

   TITEL  = PAW_PBE O 08Apr2002
   POMASS =   16.000; ZVAL   =    6.000    mass and valenz
   ENMAX  =  400.000; ENMIN  =  300.000 eV

 Optimization of the real space projectors (new method)

 maximal supplied QI-value         = 17.01
 optimisation between [QCUT,QGAM] = [ 10.20, 20.41] = [ 29.16,116.64] Ry
 Optimized for a Real-space Cutoff    1.30 Angstroem

   l    n(q)    QCUT    max X(q) W(low)/X(q) W(high)/X(q)  e(spline)
   1      7    10.205     4.940    0.23E-03    0.84E-03    0.11E-06
   1      7    10.205     6.253    0.40E-03    0.13E-02    0.18E-06
   0      8    10.205    37.438    0.23E-03    0.37E-03    0.42E-07
   0      8    10.205     9.606    0.16E-03    0.26E-03    0.31E-07
 Optimization of the real space projectors (new method)

[...]

   l    n(q)    QCUT    max X(q) W(low)/X(q) W(high)/X(q)  e(spline)
   1      8    10.239     3.658    0.23E-03    0.30E-03    0.98E-07
   1      8    10.239     5.612    0.32E-03    0.65E-03    0.21E-06
   2      7    10.239    55.373    0.42E-03    0.45E-03    0.65E-07
   2      7    10.239    50.863    0.43E-03    0.48E-03    0.67E-07
   0      8    10.239    79.536    0.11E-03    0.21E-03    0.56E-07
   0      8    10.239    38.668    0.96E-04    0.19E-03    0.52E-07
 Optimization of the real space projectors (new method)

 maximal supplied QI-value         = 24.76
 optimisation between [QCUT,QGAM] = [ 10.15, 20.30] = [ 28.85,115.39] Ry
 Optimized for a Real-space Cutoff    1.38 Angstroem

   l    n(q)    QCUT    max X(q) W(low)/X(q) W(high)/X(q)  e(spline)
   0      8    10.150    20.381    0.22E-03    0.32E-03    0.29E-06
   0      8    10.150    15.268    0.23E-03    0.35E-03    0.30E-06
   1      8    10.150     5.964    0.46E-03    0.53E-03    0.21E-06
   1      8    10.150     5.382    0.38E-03    0.45E-03    0.19E-06
  PAW_PBE Na_pv 19Sep2006               :
  PAW_PBE Mg_pv 13Apr2007               :
  PAW_PBE Mn_pv 02Aug2007               :
  PAW_PBE O 08Apr2002                   :

 POSCAR: Na Mg Mn  O
  positions in cartesian coordinates

 METAGGA = SCAN     LMAXTAU =  6    LMIXTAU =  F

 VTST: version 3.2, (02/03/18)

 CHAIN: initializing optimizer

 OPT: Using VASP Dynamics algorithm
 CHAIN: Read ICHAIN            0

 POSCAR: Na Mg Mn  O
  positions in cartesian coordinates

 ion  position               nearest neighbor table
   1  0.466  0.398  0.250-  87 2.27  50 2.27  78 2.31
   2  0.426  0.227  0.745-  48 2.21  44 2.28  47 2.28  45 2.31
   3  0.208  0.390  0.736-  58 2.16  80 2.21  32 2.96
   4  0.987  0.545  0.758-  71 2.28  68 2.28  57 2.30
   5  0.492  0.876  0.250-  86 2.34  77 2.37
   6  0.887  0.587  0.251-  75 2.31  65 2.35  66 2.36
   7  0.698  0.115  0.741-  46 2.14  49 2.19  31 2.81  29 2.98
   8  0.440  0.757  0.747-  84 2.16  81 2.26  80 2.31
   9  0.180  0.040  0.252-  76 2.27  63 2.35  41 2.37  27 2.82  25 2.87
  10  0.723  0.769  0.245-  79 2.27  88 2.38
  11  0.183  0.551  0.244-  77 2.32  55 2.32  37 2.75  39 2.93
  12  0.681  0.569  0.748-  82 2.27  85 2.31  45 2.33  35 2.74  33 2.87
  13  0.972  0.027  0.751-  69 2.24  56 2.26  59 2.32
  14  0.196  0.891  0.745-  70 2.27
  15  0.974  0.177  0.255-  63 2.26  53 2.28  54 2.31  62 2.34  30 2.89
  16  0.683  0.222  0.250-  62 2.24
  17  0.843  0.375  0.987-  49 1.90  60 2.01  71 2.06  53 2.10  43 2.12  66 2.16  29 2.76  30 2.82

  18  0.537  0.252  0.500-  45 2.04  46 2.05  52 2.06  44 2.11  51 2.12  50 2.14  35 2.74  28 2.84

[...]

  24  0.533  0.733  0.499-  88 1.95  82 1.99  87 2.00  86 2.05  80 2.11  81 2.15  40 2.76  35 2.78

  25  0.167  0.046  0.996-  72 1.85  47 1.89  54 1.90  67 1.97  61 2.03  41 2.05  23 2.80  30 2.85
                             9 2.87  34 2.89  26 2.97
  26  0.509  0.218  0.006-  48 1.90  41 1.90  42 1.96  49 1.98  43 1.99  47 2.00  33 2.87  29 2.89
                            25 2.97
  27  0.195  0.063  0.503-  44 1.87  76 1.96  69 1.96  50 1.97  63 1.97  58 2.00  22 2.77   9 2.82
                            36 2.88  32 2.93  40 2.99
  28  0.864  0.412  0.495-  46 1.88  68 1.89  75 1.89  62 1.96  57 1.98  52 2.03  18 2.84  39 2.87
                            35 2.88  31 2.91
  29  0.682  0.058  0.002-  53 1.92  49 1.93  59 1.93  42 1.94  79 1.95  84 1.98  17 2.76  30 2.85
                            26 2.89  38 2.94   7 2.98
  30  0.010  0.218  0.999-  59 1.84  54 1.87  53 1.91  60 1.96  55 2.01  61 2.01  17 2.82  29 2.85
                            25 2.85  15 2.89  37 2.94
  31  0.693  0.077  0.493-  51 1.87  46 1.88  62 1.92  81 1.96  88 1.98  56 2.00  20 2.79   7 2.81
                            36 2.88  40 2.88  28 2.91
  32  0.350  0.401  0.502-  64 1.80  87 1.91  50 1.93  45 1.93  58 1.96  80 2.01  39 2.76  35 2.93
                            27 2.93   3 2.96
  33  0.678  0.549  0.003-  43 1.88  71 1.91  65 1.91  78 1.95  85 2.00  48 2.03  12 2.87  26 2.87
                            34 2.88  38 2.88
  34  0.010  0.714  0.001-  66 1.87  73 1.87  67 1.88  65 1.89  71 1.95  72 2.00  37 2.85  33 2.88
                            25 2.89
  35  0.687  0.567  0.504-  82 1.89  87 1.92  52 1.95  45 1.95  74 1.96  68 2.00  12 2.74  18 2.74
                            24 2.78  28 2.88  40 2.91  32 2.93
  36  0.362  0.899  0.494-  51 1.87  86 1.89  81 1.91  76 1.93  70 1.94  44 1.98  27 2.88  31 2.88
                            39 2.91
  37  0.182  0.557  0.999-  60 1.88  83 1.89  77 1.89  66 1.90  73 1.96  55 2.05  21 2.75  11 2.75
                            34 2.85  38 2.91  30 2.94
  38  0.517  0.719  1.000-  78 1.86  85 1.89  84 1.91  79 1.93  83 1.95  77 2.01  23 2.85  21 2.86
                            33 2.88  37 2.91  29 2.94
  39  0.194  0.563  0.505-  57 1.85  80 1.88  86 1.91  64 1.93  70 2.02  75 2.02  32 2.76  28 2.87
                            36 2.91  11 2.93
  40  0.851  0.903  0.503-  56 1.86  88 1.88  74 1.89  69 1.97  82 1.98  63 2.05  24 2.76  20 2.79
                            31 2.88  35 2.91  27 2.99
  41  0.345  0.203  0.099-  26 1.90  25 2.05  19 2.14   9 2.37
  42  0.518  0.055  0.097-  29 1.94  26 1.96  21 2.08
  43  0.679  0.392  0.095-  33 1.88  26 1.99  17 2.12
  44  0.354  0.062  0.588-  27 1.87  36 1.98  18 2.11   2 2.28
  45  0.515  0.412  0.598-  32 1.93  35 1.95  18 2.04   2 2.31  12 2.33
  46  0.715  0.244  0.584-  31 1.88  28 1.88  18 2.05   7 2.14
  47  0.334  0.066  0.905-  25 1.89  26 2.00  21 2.24   2 2.28
  48  0.512  0.373  0.907-  26 1.90  33 2.03  19 2.04   2 2.21
  49  0.671  0.212  0.908-  17 1.90  29 1.93  26 1.98   7 2.19
  50  0.345  0.239  0.406-  32 1.93  27 1.97  18 2.14   1 2.27
  51  0.524  0.060  0.410-  31 1.87  36 1.87  18 2.12
  52  0.702  0.424  0.395-  35 1.95  28 2.03  18 2.06
  53  0.849  0.209  0.096-  30 1.91  29 1.92  17 2.10  15 2.28
  54  0.021  0.067  0.090-  30 1.87  25 1.90  23 2.09  15 2.31
  55  0.178  0.384  0.098-  19 1.99  30 2.01  37 2.05  11 2.32
  56  0.843  0.053  0.595-  40 1.86  20 2.00  31 2.00  13 2.26
  57  0.030  0.427  0.599-  39 1.85  28 1.98  20 2.22   4 2.30
  58  0.197  0.231  0.601-  32 1.96  27 2.00  20 2.11   3 2.16
  59  0.850  0.071  0.909-  30 1.84  29 1.93  23 2.09  13 2.32
  60  0.032  0.395  0.907-  37 1.88  30 1.96  17 2.01
  61  0.178  0.222  0.898-  19 2.00  30 2.01  25 2.03
  62  0.845  0.242  0.396-  31 1.92  28 1.96  20 2.16  16 2.24  15 2.34
  63  0.032  0.063  0.405-  27 1.97  20 2.04  40 2.05  15 2.26   9 2.35
  64  0.200  0.403  0.415-  32 1.80  39 1.93  20 2.08
  65  0.847  0.711  0.089-  34 1.89  33 1.91  23 2.03   6 2.35
  66  0.023  0.562  0.088-  34 1.87  37 1.90  17 2.16   6 2.36
  67  0.168  0.878  0.086-  34 1.88  25 1.97  21 2.02
  68  0.845  0.549  0.600-  28 1.89  35 2.00  22 2.19   4 2.28
  69  0.020  0.913  0.599-  27 1.96  40 1.97  22 2.03  13 2.24
  70  0.207  0.743  0.597-  36 1.94  39 2.02  22 2.09  14 2.27
  71  0.840  0.558  0.907-  33 1.91  34 1.95  17 2.06   4 2.28
  72  0.018  0.887  0.906-  25 1.85  23 1.99  34 2.00
  73  0.163  0.713  0.906-  34 1.87  37 1.96  21 2.02
  74  0.851  0.741  0.416-  40 1.89  35 1.96  22 2.01
  75  0.028  0.568  0.406-  28 1.89  39 2.02  22 2.07   6 2.31
  76  0.199  0.903  0.405-  36 1.93  27 1.96  22 1.99   9 2.27
  77  0.341  0.709  0.094-  37 1.89  21 1.94  38 2.01  11 2.32   5 2.37
  78  0.524  0.570  0.095-  38 1.86  33 1.95  19 2.12   1 2.31
  79  0.671  0.887  0.094-  38 1.93  29 1.95  23 2.07  10 2.27
  80  0.349  0.567  0.602-  39 1.88  32 2.01  24 2.11   3 2.21   8 2.31
  81  0.528  0.920  0.591-  36 1.91  31 1.96  24 2.15   8 2.26
  82  0.695  0.727  0.598-  35 1.89  40 1.98  24 1.99  12 2.27
  83  0.344  0.560  0.910-  37 1.89  38 1.95  19 2.02
  84  0.517  0.883  0.912-  38 1.91  21 1.97  29 1.98   8 2.16
  85  0.669  0.711  0.906-  38 1.89  33 2.00  23 2.02  12 2.31
  86  0.350  0.728  0.413-  36 1.89  39 1.91  24 2.05   5 2.34
  87  0.519  0.552  0.411-  32 1.91  35 1.92  24 2.00   1 2.27
  88  0.696  0.904  0.409-  40 1.88  24 1.95  31 1.98  10 2.38

  LATTYP: Found a hexagonal cell.
 ALAT       =    10.0190000534
 C/A-ratio  =     1.1196726572

  Lattice vectors:

 A1 = (  10.0190000534,   0.0000000000,   0.0000000000)
 A2 = (  -5.0095000267,   8.6767085668,   0.0000000000)
 A3 = (   0.0000000000,   0.0000000000,  11.2180004120)

Analysis of symmetry for initial positions (statically):
 Subroutine PRICEL returns:
 Original cell was already a primitive cell.

 Routine SETGRP: Setting up the symmetry group for a
 hexagonal supercell.

 Subroutine GETGRP returns: Found  1 space group operations
 (whereof  1 operations were pure point group operations)
 out of a pool of 24 trial point group operations.

The static configuration has the point symmetry C_1 .

Analysis of symmetry for dynamics (positions and initial velocities):
 Subroutine PRICEL returns:
 Original cell was already a primitive cell.

[...]

The dynamic configuration has the point symmetry C_1 .

Analysis of structural, dynamic, and magnetic symmetry:
 Subroutine PRICEL returns:
 Original cell was already a primitive cell.

 Routine SETGRP: Setting up the symmetry group for a
 hexagonal supercell.

 Subroutine GETGRP returns: Found  1 space group operations
 (whereof  1 operations were pure point group operations)
 out of a pool of 24 trial point group operations.

The magnetic configuration has the point symmetry C_1 .

[...]
   4       0.013     0.013     3.224    -0.111     3.224
   5      -0.008    -0.007     2.261    -0.124     2.260
   6       0.007     0.007     2.966    -0.155     2.965
   7       0.012     0.013     1.238    -0.037     1.237
   8       0.011     0.010     1.916    -0.076     1.916
   9       0.001     0.002     0.648    -0.045     0.648
  10       0.014     0.014     3.134    -0.161     3.134
  11       0.011     0.012     0.875    -0.066     0.874
  12      -0.009    -0.007     0.169    -0.026     0.167
  13       0.003     0.003     2.583    -0.097     2.583
  14      -0.005    -0.004     2.683    -0.123     2.682
  15       0.011     0.012     1.520    -0.057     1.519
  16      -0.001    -0.001     2.952    -0.105     2.951
  17       0.055     0.059    12.700     0.136    12.697
  18       0.042     0.046    12.148     0.103    12.144
  19       0.050     0.053    11.332     0.122    11.330
  20       0.024     0.028    11.261     0.103    11.257
  21       0.069     0.070    12.935     0.134    12.933
  22       0.049     0.052    11.745     0.123    11.742
  23       0.062     0.065    13.500     0.153    13.497
  24       0.065     0.068    13.128     0.149    13.125
  25     161.436   161.422    97.723  -139.634    97.737
  26     162.741   162.722    96.422  -141.525    96.441
  27     162.462   162.448    97.276  -141.212    97.290
  28     161.226   161.213    95.307  -139.332    95.319
  29     162.448   162.429    98.573  -141.026    98.593
  30     161.342   161.316    95.834  -139.425    95.861
  31     161.283   161.263    99.182  -139.351    99.202
  32     160.261   160.239    95.680  -138.044    95.703
  33     162.372   162.354   100.180  -140.806   100.198
  34     159.994   159.972    98.508  -137.519    98.530
  35     161.394   161.380    97.577  -139.786    97.591
  36     161.018   160.999    96.620  -139.088    96.639
  37     160.735   160.711    97.331  -138.723    97.355
  38     161.028   161.004    95.341  -139.108    95.365
  39     160.945   160.934    96.690  -138.870    96.701
  40     161.693   161.676    94.708  -139.999    94.726
  41       1.581     1.585     6.375    -1.545     6.370
  42       2.038     2.040     7.257    -2.018     7.255
  43       2.496     2.502     8.387    -2.510     8.380
  44       2.171     2.178     7.132    -2.191     7.125
  45       1.967     1.967     7.216    -1.927     7.217
  46       2.459     2.461     8.316    -2.456     8.313
  47       1.152     1.154     5.469    -1.099     5.468
  48       1.646     1.647     7.150    -1.566     7.149
  49       2.055     2.060     7.433    -2.029     7.429
  50       0.890     0.894     5.247    -0.807     5.242
  51       3.194     3.200     8.428    -3.328     8.421
  52       1.643     1.651     7.631    -1.538     7.623
  53       2.459     2.460     8.414    -2.455     8.413
  54       3.304     3.312     9.480    -3.384     9.472
  55      -0.234    -0.230     3.575     0.419     3.572
  56       3.182     3.186     9.975    -3.191     9.971
  57       2.461     2.465     8.327    -2.467     8.324
  58       0.858     0.863     5.508    -0.743     5.504
  59       3.142     3.143     9.071    -3.212     9.070
  60       2.419     2.419     7.238    -2.458     7.239
[...]
  74       1.619     1.620     5.444    -1.640     5.442
  75       2.800     2.798     8.479    -2.826     8.481
  76       2.282     2.287     8.373    -2.251     8.368
  77       2.217     2.214     7.109    -2.222     7.112
  78       2.956     2.961     8.837    -3.003     8.832
  79       1.411     1.412     6.000    -1.356     5.999
  80       2.516     2.522     8.807    -2.495     8.801
  81       1.391     1.395     5.903    -1.345     5.899
  82       1.878     1.882     7.729    -1.822     7.725
  83       2.287     2.292     7.185    -2.325     7.180
  84       1.629     1.634     5.203    -1.670     5.197
  85       1.933     1.940     7.911    -1.867     7.904
  86       3.066     3.068     8.637    -3.148     8.636
  87       1.844     1.846     6.932    -1.822     6.930
  88       2.749     2.753     8.229    -2.796     8.225

 Dipolar hyperfine coupling parameters (MHz)
  ion      A_xx      A_yy      A_zz      A_xy      A_xz      A_yz
   1      -0.712    -0.716     1.427     0.104    -0.351     0.198
   2      -0.679    -0.686     1.365     0.165     0.299    -0.086
   3      -0.802    -0.723     1.525    -0.106    -0.439    -0.361
   4      -0.667    -0.945     1.613    -0.025     0.043     0.467
   5      -0.833    -0.617     1.451     0.118    -0.477     0.208
   6      -0.623    -0.950     1.573     0.012     0.020    -0.508
   7      -0.932    -0.933     1.865     0.018    -0.071    -0.064
   8      -0.718    -0.575     1.292     0.168     0.404    -0.079
   9      -0.888    -0.988     1.876    -0.009     0.093     0.048
  10      -0.791    -0.628     1.419    -0.120     0.302     0.324
  11      -0.946    -1.023     1.969     0.056     0.073    -0.032
  12      -0.966    -1.058     2.024    -0.009     0.002    -0.024
  13      -0.631    -0.921     1.551     0.008     0.022     0.440
  14      -0.765    -0.706     1.471    -0.126    -0.437    -0.305
  15      -0.570    -0.767     1.337     0.066    -0.104    -0.042
  16      -0.892    -0.728     1.620    -0.048     0.476     0.219
  17       1.405     1.562    -2.967     0.034    -0.054     0.022
  18       1.455     1.449    -2.904    -0.070    -0.115     0.055
  19       1.471     1.395    -2.865    -0.033     0.056     0.028
  20       1.244     1.555    -2.800     0.304     0.033    -0.116
  21       1.649     1.313    -2.963     0.099     0.044     0.060
  22       1.417     1.449    -2.866     0.028    -0.073     0.040
  23       1.395     1.566    -2.961     0.031    -0.010    -0.043
  24       1.592     1.397    -2.989     0.104     0.077    -0.166
  25      -0.586    -0.278     0.864    -0.573     1.005    -0.952
  26      -0.682     1.184    -0.502    -1.078    -0.299     2.684
  27      -1.580     0.726     0.855    -0.301    -0.404    -0.016
  28       2.156     1.072    -3.228    -1.050     1.819     0.092
  29      -0.720    -0.046     0.766    -0.905    -0.529     0.530
  30       0.297     0.179    -0.476    -1.176    -0.222     0.351
  31       1.159    -1.753     0.594    -0.510    -1.126    -0.329
  32      -0.625     0.838    -0.213    -0.964    -1.348    -0.840
  33      -0.546    -0.378     0.925     0.810     0.344     0.570
  34      -1.348    -0.249     1.597    -0.027     0.177    -0.248
  35      -0.391     0.892    -0.500    -0.790     1.035    -1.495
  36      -0.096    -1.787     1.882    -0.628    -1.029    -0.321
  37      -1.371     0.407     0.963    -0.254    -0.149    -1.037
  38      -0.434    -0.250     0.684     0.764    -0.146     0.100
  39      -0.497     0.637    -0.140    -1.095     0.380     0.483
  40      -0.771     0.001     0.770     0.928     0.014    -1.259
  41      -4.671     5.293    -0.622    -4.161     4.318    -2.766
  42      -4.685     2.636     2.049     4.289     4.174     4.123
  43       4.149    -6.505     2.356     0.080    -5.080     1.382
  44      -5.239     3.608     1.630     2.614    -3.285    -4.087
  45      -1.595     2.147    -0.553    -4.874    -1.232     4.490
  46       7.647    -6.462    -1.185     0.183     5.003    -2.424
  47      -2.276     3.630    -1.354    -6.453     1.150    -3.561
  48       5.264    -4.548    -0.716    -0.041    -4.935     1.227
  49      -2.564     1.881     0.683     4.819     0.714     5.204
  50       5.221    -5.635     0.414     2.804     3.898    -0.039
  51      -3.914     0.257     3.657    -5.634    -4.857     3.401
  52      -3.658     4.206    -0.548     3.770    -1.407    -3.603
  53      -3.499     3.495     0.004    -4.684     1.751    -4.948
  54      -1.964     2.250    -0.286     6.312     0.837     2.307
  55       4.382    -4.888     0.505     0.178    -5.047     0.799
  56       0.117     0.736    -0.852     6.013    -2.042    -4.057
  57      -4.445     5.473    -1.028    -5.772    -1.459     3.801
  58       4.215    -4.169    -0.045     1.259     3.613     1.667
  59      -2.970     1.984     0.985    -5.061     1.888    -4.601
  60       5.062    -6.252     1.190    -1.145    -3.517    -0.621
[...]
  74       3.891    -6.124     2.233     0.386     5.532     0.208
  75      -3.396     2.353     1.042    -4.127    -0.426     5.516
  76      -3.410     1.128     2.281     5.391    -1.693    -6.232
  77      -3.228     2.476     0.752    -3.904     1.050    -4.618
  78      -2.993     2.592     0.401     5.393     1.842     4.615
  79       5.501    -5.752     0.252     0.901    -4.335    -0.631
  80      -4.031     3.032     0.999     2.411    -4.278    -3.909
  81      -1.139     1.796    -0.657    -5.848    -2.938     4.357
  82       6.100    -7.606     1.506     0.828     5.947    -0.068
  83      -4.579     2.918     1.661    -4.580     2.770    -4.660
  84       3.123    -5.946     2.823     0.891    -4.715    -0.707
  85      -3.629     3.277     0.351     4.792     4.036     4.529
  86       4.751    -6.807     2.056     2.168     3.739    -0.290
  87      -3.910     3.533     0.377    -5.499    -3.121     2.707
  88      -3.754     1.921     1.833     4.229    -4.353    -3.292

 Total hyperfine coupling parameters after diagonalization (MHz)
 (convention: |A_zz| > |A_xx| > |A_yy|)
  ion      A_xx      A_yy      A_zz     asymmetry (A_yy - A_xx)/ A_zz
   1       1.733     1.463     3.845      -0.070
   2       1.777     1.423     3.714      -0.095
   3       1.854     1.501     4.156      -0.085
   4       2.559     2.193     4.920      -0.074
   5       1.694     1.264     3.821      -0.113
   6       2.343     1.916     4.637      -0.092
   7       0.319     0.286     3.105      -0.011
   8       1.441     1.019     3.287      -0.128
   9      -0.342    -0.243     2.527       0.039
  10       2.562     2.203     4.638      -0.077
  11      -0.179    -0.044     2.845       0.048
  12      -0.892    -0.798     2.191       0.043
  13       1.953     1.587     4.211      -0.087
  14       2.075     1.701     4.269      -0.088
  15       0.963     0.732     2.863      -0.081
  16       2.234     1.944     4.676      -0.062
  17      14.096     9.729    14.266      -0.306
  18      13.527     9.237    13.670      -0.314
  19      12.712     8.463    12.813      -0.332
  20      12.318     8.454    13.001      -0.297
  21      14.220     9.969    14.610      -0.291
  22      13.144     8.874    13.207      -0.323
  23      14.887    10.535    15.069      -0.289
  24      14.485    10.128    14.761      -0.295
  25      96.920    96.620    99.671      -0.003
  26      95.584    93.876    99.864      -0.017
  27      98.046    95.607    98.216      -0.025
  28      95.964    91.501    98.492      -0.045
  29      98.530    97.235   100.014      -0.013
  30      95.327    94.896    97.359      -0.004
  31      99.112    97.242   101.251      -0.018
  32      96.647    93.400    97.062      -0.033
  33     100.127    98.914   101.555      -0.012
  34      98.248    97.172   100.171      -0.011
  35      96.884    95.907    99.983      -0.010
  36      96.421    94.536    98.960      -0.019
  37      97.046    95.903    99.114      -0.012
  38      95.791    94.236    96.068      -0.016
  39      96.788    95.276    98.038      -0.015
  40      94.551    93.076    96.550      -0.015
  41       5.448    -1.420    15.083      -0.455
  42       5.467    -0.034    16.333      -0.337
  43       6.724     1.579    16.838      -0.306
  44       5.700     0.465    15.211      -0.344
  45       5.008     1.576    15.066      -0.228
  46       6.087     0.592    18.261      -0.301
  47       3.057    -1.161    14.508      -0.291
  48       4.290     1.931    15.225      -0.155
  49       5.840     0.861    15.586      -0.319
  50       3.877    -1.234    13.084      -0.391
  51       7.093     0.144    18.027      -0.386
  52       5.231     2.449    15.189      -0.183
  53       5.475     2.449    17.314      -0.175
  54       8.544     2.885    16.987      -0.333
  55      -1.586     0.872    11.429       0.215
  56       7.536     3.910    18.467      -0.196
  57       5.765     1.214    17.991      -0.253
  58       3.640     0.745    12.127      -0.239
  59       6.930     2.808    17.474      -0.236
  60       6.571     0.732    14.413      -0.405
[...]
  74       2.913    -0.696    14.110      -0.256
  75       6.682     2.012    16.749      -0.279
  76       6.124     0.771    18.210      -0.294
  77       5.052     1.582    14.702      -0.236
  78       6.485     2.419    17.594      -0.231
  79       3.810     0.156    14.030      -0.260
  80       7.448     2.320    16.636      -0.308
  81       2.486     0.151    15.059      -0.155
  82       5.206     0.042    17.926      -0.288
  83       4.929     0.388    16.223      -0.280
  84       3.456    -0.844    12.981      -0.331
  85       5.000     1.266    17.446      -0.214
  86       8.385     1.326    16.197      -0.436
  87       5.752    -0.241    15.280      -0.392
  88       6.812     1.399    16.464      -0.329

 stress matrix after NEB project (eV)
    -50.96700     -2.74827     -3.95163
     -2.73363    -49.81382      0.08710
     -3.91440      0.08570    -66.37043
  FORCES: max atom, RMS     2.653062    1.215684
  FORCE total and by dimension   11.404129    2.055554
  Stress total and by dimension   97.622048   66.370430

 total charge

[...]

 magnetization (x)

# of ion       s       p       d       tot
    1        0.002   0.000   0.000   0.002
    2        0.002   0.001   0.000   0.002
    3        0.002   0.000   0.000   0.002
    4        0.002   0.000   0.000   0.003
    5        0.002   0.000   0.000   0.002
    6        0.002   0.000   0.000   0.003
    7        0.001   0.000   0.000   0.001
    8        0.001   0.000   0.000   0.002
    9        0.001   0.000   0.000   0.001
   10        0.002   0.001   0.000   0.003
   11        0.001   0.000   0.000   0.001
   12        0.000   0.000   0.000   0.000
   13        0.002   0.000   0.000   0.002
   14        0.002   0.000   0.000   0.002
   15        0.001   0.000   0.000   0.002
   16        0.002   0.000   0.000   0.002
   17        0.007   0.002   0.001   0.011
   18        0.007   0.002   0.001   0.011
   19        0.006   0.002   0.001   0.009
   20        0.006   0.001   0.001   0.009
   21        0.007   0.003   0.001   0.011
   22        0.007   0.002   0.001   0.010
   23        0.007   0.002   0.001   0.011
   24        0.007   0.002   0.001   0.011
   25        0.015   0.030   2.765   2.810
   26        0.015   0.028   2.790   2.833
   27        0.015   0.029   2.786   2.831
   28        0.015   0.030   2.759   2.804
   29        0.016   0.029   2.785   2.830
   30        0.015   0.030   2.762   2.807
   31        0.016   0.030   2.762   2.808
   32        0.015   0.029   2.740   2.784
   33        0.016   0.030   2.783   2.829
   34        0.016   0.030   2.733   2.779
   35        0.015   0.030   2.767   2.813
   36        0.016   0.031   2.753   2.799
   37        0.015   0.030   2.751   2.796
   38        0.015   0.029   2.755   2.799
   39        0.015   0.029   2.754   2.798
   40        0.015   0.029   2.769   2.812
   41        0.002   0.022   0.000   0.024
   42        0.002   0.030   0.000   0.032
   43        0.002   0.037   0.000   0.040
   44        0.002   0.033   0.000   0.035
   45        0.002   0.029   0.000   0.031
   46        0.002   0.037   0.000   0.039
   47        0.002   0.015   0.000   0.016
   48        0.002   0.023   0.000   0.025
   49        0.002   0.030   0.000   0.032
   50        0.002   0.010   0.000   0.012
   51        0.002   0.050   0.000   0.052
   52        0.002   0.023   0.000   0.025
   53        0.002   0.037   0.000   0.039
   54        0.002   0.052   0.000   0.054
   55        0.001  -0.009   0.000  -0.008
   56        0.002   0.050   0.000   0.052
   57        0.002   0.037   0.000   0.039
   58        0.002   0.010   0.000   0.011
   59        0.002   0.049   0.000   0.051
   60        0.002   0.037   0.000   0.039
[...]
   74        0.002   0.024   0.000   0.025
   75        0.002   0.044   0.000   0.046
   76        0.002   0.034   0.000   0.036
   77        0.002   0.034   0.000   0.036
   78        0.002   0.046   0.000   0.048
   79        0.002   0.020   0.000   0.021
   80        0.002   0.038   0.000   0.040
   81        0.002   0.019   0.000   0.021
   82        0.002   0.026   0.000   0.029
   83        0.002   0.035   0.000   0.037
   84        0.001   0.024   0.000   0.026
   85        0.002   0.028   0.000   0.030
   86        0.002   0.048   0.000   0.050
   87        0.002   0.026   0.000   0.028
   88        0.002   0.043   0.000   0.045
tot          0.421   1.955  44.224  46.600