 vasp.5.4.4.18Apr17-6-g9f103f2a35 (build Dec 02 2020 12:53:39) complex

 executed on             LinuxIFC date 2021.08.05  10:58:56

 INCAR:
 POTCAR:    PAW_PBE Na_pv 19Sep2006
 POTCAR:    PAW_PBE Mg_pv 13Apr2007
 POTCAR:    PAW_PBE Mn_pv 02Aug2007
 POTCAR:    PAW_PBE O 08Apr2002

 POTCAR:    PAW_PBE Na_pv 19Sep2006
   VRHFIN =Na: p6s1

   TITEL  = PAW_PBE Na_pv 19Sep2006
   POMASS =   22.990; ZVAL   =    7.000    mass and valenz
   ENMAX  =  259.561; ENMIN  =  194.671 eV

 POTCAR:    PAW_PBE Mg_pv 13Apr2007
   VRHFIN =Mg: p6s2

   TITEL  = PAW_PBE Mg_pv 13Apr2007
   POMASS =   24.305; ZVAL   =    8.000    mass and valenz
   ENMAX  =  403.929; ENMIN  =  302.947 eV

 POTCAR:    PAW_PBE Mn_pv 02Aug2007
   VRHFIN =Mn: 3p4s3d

   TITEL  = PAW_PBE Mn_pv 02Aug2007
   POMASS =   54.938; ZVAL   =   13.000    mass and valenz
   ENMAX  =  269.864; ENMIN  =  202.398 eV

 POTCAR:    PAW_PBE O 08Apr2002
   VRHFIN =O: s2p4

   TITEL  = PAW_PBE O 08Apr2002
   POMASS =   16.000; ZVAL   =    6.000    mass and valenz
   ENMAX  =  400.000; ENMIN  =  300.000 eV

 Optimization of the real space projectors (new method)

 maximal supplied QI-value         = 17.01
 optimisation between [QCUT,QGAM] = [ 10.20, 20.41] = [ 29.16,116.64] Ry
 Optimized for a Real-space Cutoff    1.30 Angstroem

   l    n(q)    QCUT    max X(q) W(low)/X(q) W(high)/X(q)  e(spline)
   1      7    10.205     4.940    0.23E-03    0.84E-03    0.11E-06
   1      7    10.205     6.253    0.40E-03    0.13E-02    0.18E-06
   0      8    10.205    37.438    0.23E-03    0.37E-03    0.42E-07
   0      8    10.205     9.606    0.16E-03    0.26E-03    0.31E-07
 Optimization of the real space projectors (new method)

[...]

   l    n(q)    QCUT    max X(q) W(low)/X(q) W(high)/X(q)  e(spline)
   1      8    10.239     3.658    0.23E-03    0.30E-03    0.98E-07
   1      8    10.239     5.612    0.32E-03    0.65E-03    0.21E-06
   2      7    10.239    55.373    0.42E-03    0.45E-03    0.65E-07
   2      7    10.239    50.863    0.43E-03    0.48E-03    0.67E-07
   0      8    10.239    79.536    0.11E-03    0.21E-03    0.56E-07
   0      8    10.239    38.668    0.96E-04    0.19E-03    0.52E-07
 Optimization of the real space projectors (new method)

 maximal supplied QI-value         = 24.76
 optimisation between [QCUT,QGAM] = [ 10.15, 20.30] = [ 28.85,115.39] Ry
 Optimized for a Real-space Cutoff    1.38 Angstroem

   l    n(q)    QCUT    max X(q) W(low)/X(q) W(high)/X(q)  e(spline)
   0      8    10.150    20.381    0.22E-03    0.32E-03    0.29E-06
   0      8    10.150    15.268    0.23E-03    0.35E-03    0.30E-06
   1      8    10.150     5.964    0.46E-03    0.53E-03    0.21E-06
   1      8    10.150     5.382    0.38E-03    0.45E-03    0.19E-06
  PAW_PBE Na_pv 19Sep2006               :
  PAW_PBE Mg_pv 13Apr2007               :
  PAW_PBE Mn_pv 02Aug2007               :
  PAW_PBE O 08Apr2002                   :

 POSCAR: Na Mg Mn  O
  positions in cartesian coordinates

 METAGGA = SCAN     LMAXTAU =  6    LMIXTAU =  F

 VTST: version 3.2, (02/03/18)

 CHAIN: initializing optimizer

 OPT: Using VASP Dynamics algorithm
 CHAIN: Read ICHAIN            0

 POSCAR: Na Mg Mn  O
  positions in cartesian coordinates

 ion  position               nearest neighbor table
   1  0.506  0.677  0.262-  74 2.18  52 2.30  65 2.36  35 2.72
   2  0.164  0.318  0.753-  48 2.30  47 2.32  44 2.36
   3  0.018  0.964  0.742-  70 2.16  47 2.35  36 2.96
   4  0.953  0.611  0.746-  60 2.24  57 2.35  39 2.90  37 2.92
   5  0.149  0.601  0.237-  55 2.22  87 2.27  78 2.32  77 2.33
   6  0.992  0.159  0.256-  50 2.25  54 2.34  27 2.81  25 2.94
   7  0.518  0.470  0.757-  46 2.27  71 2.31  68 2.32  49 2.34
   8  0.811  0.240  0.758-  61 2.22  59 2.23  58 2.30  30 2.79
   9  0.648  0.115  0.239-  79 2.25  88 2.33
  10  0.913  0.809  0.257-  75 2.17  67 2.26  76 2.35
  11  0.387  0.322  0.258-  51 2.18  43 2.27  26 2.98
  12  0.450  0.093  0.750-  84 2.21  81 2.22  56 2.30  29 2.88  31 2.94
  13  0.657  0.841  0.744-  69 2.22  72 2.34  68 2.35
  14  0.306  0.687  0.741-  82 2.22  83 2.32
  15  0.319  0.962  0.249-  77 2.27  88 2.33  79 2.33  86 2.37
  16  0.794  0.469  0.265-  62 2.17  64 2.22
  17  0.649  0.460  0.000-  43 1.96  53 2.00  49 2.08  66 2.10  71 2.11  60 2.19  26 2.82  33 2.82

  18  0.311  0.327  0.503-  44 1.99  46 2.03  52 2.06  51 2.09  45 2.10  50 2.14  28 2.81  36 2.85

  19  0.151  0.451  0.005-  41 1.93  61 2.05  83 2.08  55 2.10  78 2.11  48 2.15  26 2.82  25 2.82
                            30 2.84
  20  0.794  0.324  0.498-  57 1.96  58 2.06  64 2.10  62 2.11  56 2.12  63 2.12  31 2.73
  21  0.153  0.965  0.003-  67 1.94  42 2.00  73 2.02  84 2.07  47 2.17  77 2.17  37 2.82  34 2.83
                            25 2.84  29 2.85
  22  0.804  0.827  0.509-  76 2.01  70 2.01  75 2.04  74 2.04  69 2.05  68 2.11  40 2.82  28 2.83
                            39 2.86
  23  0.649  0.958  0.995-  85 1.96  65 2.04  59 2.05  72 2.06  54 2.08  79 2.08  38 2.81  33 2.83

  24  0.312  0.832  0.501-  82 1.99  88 2.04  80 2.06  81 2.08  86 2.14  87 2.15  35 2.82  40 2.84

  25  0.987  0.126  0.995-  54 1.87  72 1.92  61 1.93  47 1.94  41 1.99  67 1.99  19 2.82  34 2.83
                            21 2.84  26 2.92  30 2.94   6 2.94
  26  0.324  0.300  0.997-  49 1.86  41 1.88  43 1.88  48 1.89  42 1.95  47 2.01  19 2.82  17 2.82
                            29 2.85  33 2.88  25 2.92  11 2.98
  27  0.974  0.160  0.505-  44 1.85  50 1.90  63 1.92  69 1.97  58 2.02  76 2.02   6 2.81  36 2.85
                            40 2.91  32 2.91
  28  0.634  0.501  0.503-  52 1.86  57 1.88  68 1.95  75 1.95  46 1.97  62 1.97  18 2.81  22 2.83
                            35 2.85  31 2.91  39 2.93
  29  0.481  0.129  0.005-  42 1.83  79 1.92  53 1.94  59 1.96  84 1.96  49 1.98  26 2.85  21 2.85
                            12 2.88  38 2.91  30 2.98
  30  0.825  0.302  0.002-  60 1.87  59 1.87  55 1.89  61 1.90  53 1.94  54 2.07   8 2.79  19 2.84
                            37 2.93  25 2.94  29 2.98
  31  0.479  0.165  0.494-  51 1.91  46 1.92  56 1.92  62 1.92  81 1.94  88 1.98  20 2.73  28 2.91
                            36 2.93  12 2.94  40 2.94
  32  0.129  0.494  0.501-  80 1.88  45 1.92  58 1.93  87 1.96  50 2.01  64 2.01  39 2.87  27 2.91
                            35 2.93
  33  0.496  0.632  0.996-  85 1.86  65 1.89  71 1.89  43 1.93  48 1.98  78 2.00  17 2.82  23 2.83
                            34 2.88  38 2.88  26 2.88
  34  0.827  0.800  0.994-  73 1.87  71 1.89  67 1.91  72 1.92  65 1.97  66 2.00  21 2.83  25 2.83
                            33 2.88  37 2.88
  35  0.467  0.662  0.502-  74 1.81  52 1.84  82 1.86  87 1.96  68 1.96  45 2.00   1 2.72  24 2.82
                            40 2.82  28 2.85  32 2.93
  36  0.142  0.998  0.497-  76 1.87  81 1.88  70 1.88  86 1.90  44 1.94  51 1.97  27 2.85  18 2.85
                            39 2.89  31 2.93   3 2.96
  37  0.998  0.640  0.004-  66 1.88  73 1.93  83 1.94  77 1.99  55 2.05  60 2.06  21 2.82  38 2.85
                            34 2.88   4 2.92  30 2.93
  38  0.326  0.793  0.009-  78 1.86  83 1.91  77 1.92  79 1.92  85 1.97  84 1.98  23 2.81  37 2.85
                            33 2.88  29 2.91
  39  0.971  0.666  0.491-  57 1.85  64 1.86  70 1.88  75 1.89  80 1.90  86 1.95  22 2.86  32 2.87
                            36 2.89   4 2.90  28 2.93
  40  0.639  0.987  0.502-  63 1.86  74 1.90  88 1.93  56 1.93  69 1.97  82 2.00  22 2.82  35 2.82
                            24 2.84  27 2.91  31 2.94
  41  0.162  0.288  0.088-  26 1.88  19 1.93  25 1.99
  42  0.330  0.138  0.090-  29 1.83  26 1.95  21 2.00
  43  0.480  0.461  0.087-  26 1.88  33 1.93  17 1.96  11 2.27
  44  0.132  0.157  0.589-  27 1.85  36 1.94  18 1.99   2 2.36
  45  0.291  0.499  0.595-  32 1.92  35 2.00  18 2.10
  46  0.482  0.322  0.595-  31 1.92  28 1.97  18 2.03   7 2.27
  47  0.153  0.144  0.894-  25 1.94  26 2.01  21 2.17   2 2.32   3 2.35
  48  0.336  0.460  0.901-  26 1.89  33 1.98  19 2.15   2 2.30
  49  0.470  0.285  0.904-  26 1.86  29 1.98  17 2.08   7 2.34
  50  0.122  0.320  0.407-  27 1.90  32 2.01  18 2.14   6 2.25
  51  0.314  0.154  0.401-  31 1.91  36 1.97  18 2.09  11 2.18
  52  0.483  0.514  0.415-  35 1.84  28 1.86  18 2.06   1 2.30
  53  0.654  0.291  0.092-  30 1.94  29 1.94  17 2.00
  54  0.835  0.126  0.091-  25 1.87  30 2.07  23 2.08   6 2.34
  55  0.975  0.457  0.101-  30 1.89  37 2.05  19 2.10   5 2.22
  56  0.618  0.138  0.595-  31 1.92  40 1.93  20 2.12  12 2.30
  57  0.808  0.507  0.572-  39 1.85  28 1.88  20 1.96   4 2.35
  58  0.972  0.332  0.596-  32 1.93  27 2.02  20 2.06   8 2.30
  59  0.658  0.147  0.917-  30 1.87  29 1.96  23 2.05   8 2.23
  60  0.838  0.458  0.903-  30 1.87  37 2.06  17 2.19   4 2.24
  61  0.972  0.284  0.908-  30 1.90  25 1.93  19 2.05   8 2.22
  62  0.622  0.336  0.398-  31 1.92  28 1.97  20 2.11  16 2.17
  63  0.803  0.138  0.414-  40 1.86  27 1.92  20 2.12
  64  0.969  0.508  0.402-  39 1.86  32 2.01  20 2.10  16 2.22
  65  0.655  0.786  0.089-  33 1.89  34 1.97  23 2.04   1 2.36
  66  0.837  0.638  0.091-  37 1.88  34 2.00  17 2.10
  67  0.982  0.957  0.091-  34 1.91  21 1.94  25 1.99  10 2.26
  68  0.619  0.650  0.605-  28 1.95  35 1.96  22 2.11   7 2.32  13 2.35
  69  0.807  0.003  0.604-  27 1.97  40 1.97  22 2.05  13 2.22
  70  0.989  0.831  0.583-  36 1.88  39 1.88  22 2.01   3 2.16
  71  0.661  0.647  0.904-  33 1.89  34 1.89  17 2.11   7 2.31
  72  0.829  0.962  0.902-  34 1.92  25 1.92  23 2.06  13 2.34
  73  0.984  0.792  0.909-  34 1.87  37 1.93  21 2.02
  74  0.623  0.815  0.417-  35 1.81  40 1.90  22 2.04   1 2.18
  75  0.803  0.658  0.408-  39 1.89  28 1.95  22 2.04  10 2.17
  76  0.977  0.989  0.411-  36 1.87  22 2.01  27 2.02  10 2.35
  77  0.168  0.791  0.108-  38 1.92  37 1.99  21 2.17  15 2.27   5 2.33
  78  0.333  0.638  0.095-  38 1.86  33 2.00  19 2.11   5 2.32
  79  0.480  0.967  0.097-  29 1.92  38 1.92  23 2.08   9 2.25  15 2.33
  80  0.124  0.654  0.583-  32 1.88  39 1.90  24 2.06
  81  0.306  0.012  0.587-  36 1.88  31 1.94  24 2.08  12 2.22
  82  0.471  0.816  0.596-  35 1.86  24 1.99  40 2.00  14 2.22
  83  0.163  0.638  0.916-  38 1.91  37 1.94  19 2.08  14 2.32
  84  0.327  0.957  0.909-  29 1.96  38 1.98  21 2.07  12 2.21
  85  0.483  0.784  0.909-  33 1.86  23 1.96  38 1.97
  86  0.133  0.837  0.402-  36 1.90  39 1.95  24 2.14  15 2.37
  87  0.299  0.643  0.400-  32 1.96  35 1.96  24 2.15   5 2.27
  88  0.489  0.001  0.404-  40 1.93  31 1.98  24 2.04  15 2.33   9 2.33

  LATTYP: Found a hexagonal cell.
 ALAT       =    10.0190000534
 C/A-ratio  =     1.1196726572

  Lattice vectors:

 A1 = (  10.0190000534,   0.0000000000,   0.0000000000)
 A2 = (  -5.0095000267,   8.6767085668,   0.0000000000)
 A3 = (   0.0000000000,   0.0000000000,  11.2180004120)

Analysis of symmetry for initial positions (statically):
 Subroutine PRICEL returns:
 Original cell was already a primitive cell.

 Routine SETGRP: Setting up the symmetry group for a
 hexagonal supercell.

 Subroutine GETGRP returns: Found  1 space group operations
 (whereof  1 operations were pure point group operations)
 out of a pool of 24 trial point group operations.

[...]
   4       0.012     0.012     1.379    -0.094     1.379
   5      -0.013    -0.014     2.167    -0.057     2.168
   6       0.011     0.010     1.069    -0.071     1.070
   7      -0.004    -0.004     2.464    -0.073     2.464
   8       0.013     0.013     1.866    -0.083     1.866
   9      -0.001    -0.002     2.637    -0.108     2.637
  10       0.006     0.006     2.172    -0.083     2.172
  11       0.022     0.022     2.297    -0.109     2.297
  12       0.007     0.006     1.086    -0.042     1.086
  13      -0.000     0.000     2.565    -0.105     2.565
  14       0.013     0.013     2.867    -0.124     2.868
  15      -0.000    -0.000     2.855    -0.093     2.855
  16       0.001     0.001     2.750    -0.097     2.750
  17       0.051     0.054    13.178     0.127    13.175
  18       0.059     0.063    13.555     0.141    13.551
  19       0.058     0.063    12.911     0.131    12.906
  20       0.055     0.058    12.904     0.114    12.901
  21       0.042     0.045    12.187     0.131    12.185
  22       0.058     0.060    13.116     0.145    13.114
  23       0.077     0.080    13.409     0.150    13.407
  24       0.056     0.060    12.742     0.126    12.738
  25     161.433   161.417    94.886  -139.816    94.902
  26     159.736   159.719    93.466  -137.238    93.483
  27     162.235   162.219    98.232  -140.612    98.248
  28     161.274   161.257    99.152  -139.281    99.168
  29     161.238   161.218    97.027  -139.327    97.047
  30     160.220   160.198    93.467  -138.136    93.489
  31     160.899   160.885    96.269  -138.973    96.283
  32     163.081   163.058    98.412  -141.838    98.435
  33     160.873   160.858    98.123  -138.734    98.138
  34     161.152   161.132    98.893  -139.173    98.913
  35     159.003   158.982    94.922  -136.157    94.943
  36     160.319   160.301    96.329  -138.055    96.347
  37     163.735   163.718   102.104  -142.639   102.122
  38     161.090   161.069    94.815  -139.191    94.835
  39     159.279   159.254    97.928  -136.608    97.954
  40     161.257   161.239    97.195  -139.356    97.213
  41       2.420     2.423     7.888    -2.433     7.885
  42       3.448     3.455     9.065    -3.576     9.058
  43       2.440     2.445     7.432    -2.488     7.427
  44       3.378     3.387     9.276    -3.485     9.267
  45       1.394     1.397     5.621    -1.358     5.618
  46       1.584     1.588     6.960    -1.510     6.957
  47       1.965     1.971     7.088    -1.945     7.082
  48       2.088     2.091     6.933    -2.095     6.929
  49       2.513     2.518     8.318    -2.509     8.313
  50       1.738     1.743     7.447    -1.660     7.443
  51       1.812     1.814     6.496    -1.798     6.494
  52       3.691     3.699     9.191    -3.850     9.183
  53       1.552     1.553     5.869    -1.531     5.868
  54       2.068     2.073     6.850    -2.077     6.845
  55       1.526     1.531     7.039    -1.442     7.033
  56       2.500     2.503     8.886    -2.458     8.882
  57       2.776     2.780     6.727    -2.925     6.724
  58       1.197     1.198     6.134    -1.107     6.133
  59       2.026     2.026     5.403    -2.113     5.402
  60       0.788     0.796     5.632    -0.681     5.625
[...]
  74       3.867     3.871     9.942    -4.025     9.938
  75       1.677     1.678     6.472    -1.640     6.471
  76       1.511     1.516     6.221    -1.473     6.215
  77       1.711     1.715     7.547    -1.637     7.543
  78       2.499     2.502     7.606    -2.540     7.603
  79       2.268     2.271     6.818    -2.322     6.815
  80       2.420     2.426     7.286    -2.477     7.280
  81       2.115     2.119     7.164    -2.121     7.160
  82       2.951     2.949     8.751    -2.980     8.753
  83       2.624     2.627     8.347    -2.641     8.345
  84       1.340     1.343     6.794    -1.227     6.791
  85       2.061     2.065     6.547    -2.088     6.543
  86       1.881     1.882     6.790    -1.854     6.789
  87       1.530     1.534     6.566    -1.473     6.562
  88       1.441     1.443     5.644    -1.413     5.642

 Dipolar hyperfine coupling parameters (MHz)
  ion      A_xx      A_yy      A_zz      A_xy      A_xz      A_yz
   1      -0.927    -0.964     1.891    -0.123     0.041     0.063
   2      -0.780    -0.630     1.410     0.075     0.451    -0.248
   3      -0.855    -0.657     1.512    -0.146    -0.403    -0.242
   4      -0.799    -1.007     1.806    -0.131     0.058     0.084
   5      -0.649    -0.875     1.524    -0.011     0.023    -0.549
   6      -0.858    -0.983     1.841    -0.100    -0.030    -0.006
   7      -0.832    -0.689     1.521    -0.051    -0.456    -0.210
   8      -0.571    -0.863     1.434    -0.054    -0.025     0.303
   9      -0.660    -0.875     1.535     0.017     0.116    -0.421
  10      -0.764    -0.675     1.439    -0.100     0.361     0.137
  11      -0.806    -0.563     1.369    -0.122     0.289     0.092
  12      -0.812    -0.947     1.759    -0.150     0.001    -0.047
  13      -0.773    -0.650     1.423     0.113     0.489    -0.258
  14      -0.565    -0.958     1.522     0.043    -0.107     0.417
  15      -0.806    -0.637     1.443     0.017    -0.464     0.208
  16      -0.732    -0.626     1.359     0.125    -0.405     0.274
  17       1.497     1.405    -2.902     0.021     0.136    -0.045
  18       1.479     1.446    -2.925     0.193    -0.102    -0.011
  19       1.275     1.651    -2.926    -0.160    -0.020     0.029
  20       1.226     1.742    -2.968    -0.186     0.016    -0.057
  21       1.602     1.321    -2.923     0.333     0.135     0.040
  22       1.668     1.296    -2.963     0.136    -0.062     0.061
  23       1.407     1.541    -2.949     0.084    -0.126     0.070
  24       1.525     1.352    -2.877    -0.002     0.136    -0.042
  25      -0.681     0.507     0.174    -0.540     0.633     0.207
  26      -0.128     1.012    -0.884    -0.258     1.121     0.390
  27      -1.800     0.423     1.377    -0.424    -0.710     0.941
  28      -1.757     1.049     0.708     0.529     0.511     0.023
  29      -1.905    -0.005     1.910    -0.107     0.463     0.152
  30       0.032    -0.283     0.252    -0.884     0.457    -0.027
  31       1.035     0.565    -1.600     1.017    -1.057     0.919
  32      -0.754     0.043     0.712     0.776     0.631     0.355
  33       0.161    -0.564     0.403    -0.080    -0.484     0.737
  34      -1.606     0.762     0.844    -0.363    -0.317    -0.391
  35       0.624    -0.016    -0.608    -0.645     0.696    -1.091
  36      -1.200    -0.459     1.659    -1.934    -0.657    -1.270
  37      -1.394     1.553    -0.159     0.413     0.414    -0.221
  38       0.938    -1.032     0.095     0.619     0.356    -0.651
  39      -0.625    -2.782     3.408    -0.736    -0.456    -1.072
  40       0.115    -0.248     0.133    -0.467     0.713    -0.002
  41      -2.890     2.084     0.806    -5.543     2.225    -3.615
  42      -4.417     2.601     1.816     4.814     4.264     3.158
  43       4.858    -5.829     0.971    -1.782    -3.895    -0.473
  44      -4.747     2.388     2.358     4.202    -3.564    -2.672
  45      -4.061     3.333     0.728    -3.279    -3.553     3.010
  46       6.144    -5.886    -0.258     0.519     4.754    -0.248
  47      -3.487     3.795    -0.308    -4.896     3.180    -3.668
  48       4.889    -5.107     0.218     0.374    -4.445     1.664
  49      -2.318     2.668    -0.350     5.172     2.676     3.846
  50       5.642    -5.738     0.096    -0.438     4.844     2.665
  51      -3.729     3.220     0.509    -5.269    -2.577     3.511
  52      -2.558     2.246     0.312     5.505    -3.492    -3.386
  53      -2.949     1.754     1.195    -5.254     2.860    -3.950
  54      -3.555     2.124     1.432     4.187     4.276     2.758
  55       5.793    -5.103    -0.691     0.449    -3.971     0.029
  56      -2.231     4.079    -1.849     6.366    -1.653    -2.615
  57      -4.769     0.572     4.197    -3.730    -1.210     5.335
  58       3.315    -5.818     2.502     1.173     5.298     0.701
  59      -2.017     0.264     1.753    -5.303     2.533    -3.899
  60       7.117    -5.828    -1.289    -0.155    -4.261     0.834
[...]
  74       5.571    -7.848     2.277    -1.727     6.117     0.757
  75      -4.260     3.256     1.004    -4.006    -1.806     4.907
  76      -3.069     0.639     2.429     3.519    -2.150    -5.497
  77      -4.528     4.575    -0.046    -4.540     1.667    -4.699
  78      -1.880     0.159     1.721     5.366     1.914     4.533
  79       4.044    -6.220     2.176     1.514    -4.391     0.355
  80      -1.524     0.142     1.382     5.506    -2.281    -4.486
  81      -3.874     3.740     0.134    -5.300    -2.197     4.629
  82       4.523    -4.466    -0.056    -0.153     4.565    -1.591
  83      -4.377     3.191     1.186    -3.248     1.317    -4.905
  84       6.034    -4.962    -1.072     0.360    -4.720    -1.668
  85      -3.064     2.268     0.797     4.624     1.218     3.859
  86       4.693    -5.162     0.469     0.140     4.925    -1.345
  87      -3.011     3.543    -0.532    -5.350    -1.538     3.211
  88      -2.979     1.668     1.312     5.028    -3.390    -3.233

 Total hyperfine coupling parameters after diagonalization (MHz)
 (convention: |A_zz| > |A_xx| > |A_yy|)
  ion      A_xx      A_yy      A_zz     asymmetry (A_yy - A_xx)/ A_zz
   1       0.554     0.302     3.267      -0.077
   2       2.453     2.129     4.577      -0.071
   3       1.615     1.176     3.795      -0.116
   4       0.643     0.305     3.189      -0.106
   5       1.518     1.173     3.812      -0.091
   6       0.267     0.031     2.912      -0.081
   7       1.790     1.515     4.087      -0.067
   8       1.302     0.956     3.340      -0.104
   9       1.976     1.686     4.249      -0.068
  10       1.559     1.281     3.676      -0.076
  11       1.785     1.399     3.706      -0.104
  12       0.371     0.042     2.845      -0.116
  13       1.982     1.598     4.116      -0.093
  14       2.306     1.834     4.463      -0.106
  15       2.212     1.945     4.408      -0.061
  16       2.206     1.831     4.214      -0.089
  17      14.577    10.268    14.680      -0.294
  18      14.821    10.624    15.208      -0.276
  19      14.122     9.980    14.616      -0.283
  20      14.067     9.932    14.704      -0.281
  21      13.286     9.258    14.012      -0.287
  22      14.367    10.149    14.827      -0.284
  23      14.778    10.453    14.989      -0.289
  24      14.089     9.856    14.267      -0.297
  25      95.391    93.693    95.623      -0.018
  26      94.159    91.715    94.574      -0.026
  27      98.093    96.273   100.377      -0.018
  28      99.937    97.221   100.347      -0.027
  29      97.040    95.079    99.022      -0.020
  30      93.601    92.407    94.460      -0.013
  31      96.882    93.815    98.153      -0.031
  32      98.450    97.137    99.717      -0.013
  33      98.077    97.152    99.186      -0.009
  34      99.432    97.198   100.109      -0.022
  35      94.735    93.485    96.608      -0.013
  36      97.234    93.184    98.624      -0.041
  37     102.083   100.534   103.747      -0.015
  38      95.222    93.300    95.983      -0.020
  39      97.552    94.742   101.567      -0.028
  40      97.088    96.403    98.147      -0.007
  41       6.234     1.406    16.017      -0.301
  42       8.084     1.458    17.633      -0.376
  43       6.352     1.112    14.818      -0.354
  44       8.987     2.035    16.778      -0.414
  45       4.580    -0.622    12.896      -0.403
  46       4.236     0.996    15.639      -0.207
  47       4.637     0.796    15.814      -0.243
  48       5.225     1.036    14.527      -0.288
  49       5.479     2.732    16.729      -0.164
  50       6.138     0.230    15.960      -0.370
  51       4.708    -0.136    14.911      -0.325
  52       6.984     2.786    17.777      -0.236
  53       3.797    -0.497    14.304      -0.300
  54       5.864     0.104    14.567      -0.395
  55       4.477     1.900    14.723      -0.175
  56       6.145     2.702    17.800      -0.193
  57       4.859    -0.190    15.504      -0.326
  58       3.750     0.167    14.482      -0.247
  59       3.753    -0.936    13.390      -0.350
  60       2.725    -0.388    14.539      -0.214
[...]
  74       7.984     1.586    20.243      -0.316
  75       3.898     0.458    15.059      -0.228
  76       3.221     0.758    14.666      -0.168
  77       4.813     1.122    16.692      -0.221
  78       6.101     0.966    15.741      -0.326
  79       5.725     0.241    14.481      -0.379
  80       5.433     0.773    15.634      -0.298
  81       4.442     0.562    16.476      -0.235
  82       6.563     3.523    16.172      -0.188
  83       5.875     2.713    16.446      -0.192
  84       4.109     0.999    15.266      -0.204
  85       5.081     0.661    13.887      -0.318
  86       4.506     1.103    14.759      -0.231
  87       4.564     0.542    14.579      -0.276
  88       4.035    -0.763    13.655      -0.351

 stress matrix after NEB project (eV)
    -43.53045      1.18357     -1.82249
      1.17208    -45.06718     -0.84488
     -1.82535     -0.85124    -57.09814
  FORCES: max atom, RMS     2.109856    1.076717
  FORCE total and by dimension   10.100497    1.890739
  Stress total and by dimension   84.835223   57.098144

 total charge

[...]

 magnetization (x)

# of ion       s       p       d       tot
    1        0.001   0.001   0.000   0.002
    2        0.002   0.000   0.000   0.003
    3        0.002   0.000   0.000   0.002
    4        0.001   0.001   0.000   0.002
    5        0.001  -0.000   0.000   0.001
    6        0.001   0.000   0.000   0.001
    7        0.002   0.000   0.000   0.002
    8        0.001   0.001   0.000   0.002
    9        0.002   0.000   0.000   0.002
   10        0.002   0.000   0.000   0.002
   11        0.002   0.001   0.000   0.002
   12        0.001   0.000   0.000   0.001
   13        0.002   0.000   0.000   0.002
   14        0.002   0.000   0.000   0.003
   15        0.002   0.000   0.000   0.002
   16        0.002   0.000   0.000   0.002
   17        0.007   0.002   0.001   0.011
   18        0.008   0.002   0.001   0.011
   19        0.007   0.002   0.001   0.011
   20        0.007   0.002   0.001   0.011
   21        0.007   0.002   0.001   0.010
   22        0.007   0.002   0.001   0.010
   23        0.007   0.003   0.001   0.011
   24        0.007   0.002   0.001   0.011
   25        0.015   0.029   2.765   2.808
   26        0.015   0.030   2.728   2.773
   27        0.016   0.029   2.780   2.825
   28        0.016   0.031   2.760   2.807
   29        0.015   0.030   2.761   2.806
   30        0.014   0.030   2.739   2.783
   31        0.015   0.032   2.754   2.801
   32        0.015   0.029   2.795   2.839
   33        0.016   0.030   2.752   2.798
   34        0.016   0.030   2.757   2.804
   35        0.015   0.030   2.714   2.759
   36        0.015   0.031   2.740   2.785
   37        0.016   0.029   2.811   2.857
   38        0.015   0.029   2.756   2.801
   39        0.016   0.032   2.719   2.767
   40        0.016   0.030   2.760   2.805
   41        0.002   0.037   0.000   0.039
   42        0.002   0.055   0.000   0.057
   43        0.002   0.037   0.000   0.039
   44        0.002   0.053   0.000   0.056
   45        0.002   0.020   0.000   0.021
   46        0.002   0.022   0.000   0.024
   47        0.002   0.029   0.000   0.031
   48        0.002   0.032   0.000   0.033
   49        0.002   0.039   0.000   0.041
   50        0.002   0.025   0.000   0.027
   51        0.002   0.027   0.000   0.028
   52        0.002   0.059   0.000   0.061
   53        0.002   0.022   0.000   0.024
   54        0.002   0.031   0.000   0.033
   55        0.002   0.021   0.000   0.023
   56        0.002   0.038   0.000   0.040
   57        0.002   0.044   0.000   0.046
   58        0.002   0.015   0.000   0.017
   59        0.001   0.031   0.000   0.033
   60        0.002   0.008   0.000   0.009
[...]
   74        0.002   0.061   0.000   0.064
   75        0.002   0.024   0.000   0.026
   76        0.002   0.021   0.000   0.023
   77        0.002   0.023   0.000   0.026
   78        0.002   0.038   0.000   0.040
   79        0.002   0.035   0.000   0.036
   80        0.002   0.037   0.000   0.039
   81        0.002   0.032   0.000   0.034
   82        0.002   0.046   0.000   0.049
   83        0.002   0.040   0.000   0.042
   84        0.002   0.018   0.000   0.020
   85        0.002   0.031   0.000   0.033
   86        0.002   0.028   0.000   0.030
   87        0.002   0.021   0.000   0.023
   88        0.002   0.020   0.000   0.022
tot          0.423   2.053  44.102  46.578