 vasp.5.4.4.18Apr17-6-g9f103f2a35 (build Dec 02 2020 12:53:39) complex

 executed on             LinuxIFC date 2021.08.05  10:37:03

 INCAR:
 POTCAR:    PAW_PBE Na_pv 19Sep2006
 POTCAR:    PAW_PBE Mg_pv 13Apr2007
 POTCAR:    PAW_PBE Mn_pv 02Aug2007
 POTCAR:    PAW_PBE O 08Apr2002

 POTCAR:    PAW_PBE Na_pv 19Sep2006
   VRHFIN =Na: p6s1

   TITEL  = PAW_PBE Na_pv 19Sep2006
   POMASS =   22.990; ZVAL   =    7.000    mass and valenz
   ENMAX  =  259.561; ENMIN  =  194.671 eV

 POTCAR:    PAW_PBE Mg_pv 13Apr2007
   VRHFIN =Mg: p6s2

   TITEL  = PAW_PBE Mg_pv 13Apr2007
   POMASS =   24.305; ZVAL   =    8.000    mass and valenz
   ENMAX  =  403.929; ENMIN  =  302.947 eV

 POTCAR:    PAW_PBE Mn_pv 02Aug2007
   VRHFIN =Mn: 3p4s3d

   TITEL  = PAW_PBE Mn_pv 02Aug2007
   POMASS =   54.938; ZVAL   =   13.000    mass and valenz
   ENMAX  =  269.864; ENMIN  =  202.398 eV

 POTCAR:    PAW_PBE O 08Apr2002
   VRHFIN =O: s2p4

   TITEL  = PAW_PBE O 08Apr2002
   POMASS =   16.000; ZVAL   =    6.000    mass and valenz
   ENMAX  =  400.000; ENMIN  =  300.000 eV

 Optimization of the real space projectors (new method)

 maximal supplied QI-value         = 17.01
 optimisation between [QCUT,QGAM] = [ 10.20, 20.41] = [ 29.16,116.64] Ry
 Optimized for a Real-space Cutoff    1.30 Angstroem

   l    n(q)    QCUT    max X(q) W(low)/X(q) W(high)/X(q)  e(spline)
   1      7    10.205     4.940    0.23E-03    0.84E-03    0.11E-06
   1      7    10.205     6.253    0.40E-03    0.13E-02    0.18E-06
   0      8    10.205    37.438    0.23E-03    0.37E-03    0.42E-07
   0      8    10.205     9.606    0.16E-03    0.26E-03    0.31E-07
 Optimization of the real space projectors (new method)

[...]

   l    n(q)    QCUT    max X(q) W(low)/X(q) W(high)/X(q)  e(spline)
   1      8    10.239     3.658    0.23E-03    0.30E-03    0.98E-07
   1      8    10.239     5.612    0.32E-03    0.65E-03    0.21E-06
   2      7    10.239    55.373    0.42E-03    0.45E-03    0.65E-07
   2      7    10.239    50.863    0.43E-03    0.48E-03    0.67E-07
   0      8    10.239    79.536    0.11E-03    0.21E-03    0.56E-07
   0      8    10.239    38.668    0.96E-04    0.19E-03    0.52E-07
 Optimization of the real space projectors (new method)

 maximal supplied QI-value         = 24.76
 optimisation between [QCUT,QGAM] = [ 10.15, 20.30] = [ 28.85,115.39] Ry
 Optimized for a Real-space Cutoff    1.38 Angstroem

   l    n(q)    QCUT    max X(q) W(low)/X(q) W(high)/X(q)  e(spline)
   0      8    10.150    20.381    0.22E-03    0.32E-03    0.29E-06
   0      8    10.150    15.268    0.23E-03    0.35E-03    0.30E-06
   1      8    10.150     5.964    0.46E-03    0.53E-03    0.21E-06
   1      8    10.150     5.382    0.38E-03    0.45E-03    0.19E-06
  PAW_PBE Na_pv 19Sep2006               :
  PAW_PBE Mg_pv 13Apr2007               :
  PAW_PBE Mn_pv 02Aug2007               :
  PAW_PBE O 08Apr2002                   :

 POSCAR: Na Mg Mn  O
  positions in cartesian coordinates

 METAGGA = SCAN     LMAXTAU =  6    LMIXTAU =  F

 VTST: version 3.2, (02/03/18)

 CHAIN: initializing optimizer

 OPT: Using VASP Dynamics algorithm
 CHAIN: Read ICHAIN            0

 POSCAR: Na Mg Mn  O
  positions in cartesian coordinates

 ion  position               nearest neighbor table
   1  0.743  0.961  0.242-  63 2.22
   2  0.728  0.813  0.747-  71 2.24  72 2.24  68 2.33  69 2.34
   3  0.494  0.949  0.751-  85 2.25  82 2.32  81 2.38
   4  0.311  0.620  0.756-  48 2.30  45 2.31  85 2.31  80 2.32
   5  0.224  0.674  0.257-  78 2.26  86 2.29  87 2.31
   6  0.214  0.163  0.263-  51 2.24  50 2.26  42 2.36
   7  0.993  0.653  0.748-  70 2.25  73 2.36  57 2.37  39 2.85  37 2.95
   8  0.715  0.313  0.741-  56 2.26  59 2.26  57 2.27
   9  0.007  0.309  0.242-  41 2.27  55 2.37
  10  0.996  0.796  0.258-
  11  0.508  0.625  0.248-  43 2.28  33 2.87  35 2.95
  12  0.301  0.098  0.751-  81 2.27  84 2.29  44 2.36
  13  0.489  0.447  0.747-  46 2.28  49 2.31  48 2.35  68 2.35  45 2.36
  14  0.993  0.160  0.744-  58 2.19  61 2.21  69 2.37  25 2.80  27 2.89
  15  0.483  0.090  0.257-  79 2.22  88 2.22  51 2.36  31 2.84  29 2.93
  16  0.804  0.461  0.250-  75 2.25  66 2.35  62 2.37  53 2.37
  17  0.654  0.458  0.003-  66 2.02  53 2.03  49 2.09  43 2.10  60 2.12  71 2.21  29 2.76
  18  0.340  0.306  0.506-  52 2.02  51 2.08  45 2.08  50 2.09  46 2.10  44 2.13  32 2.84  35 2.85
                            28 2.86
  19  0.160  0.469  0.977-  48 1.98  83 1.98  61 2.06  41 2.19  78 2.21  55 2.21  26 2.83  30 2.84

  20  0.842  0.297  0.503-  58 2.00  56 2.01  62 2.03  64 2.08  63 2.13  57 2.13  40 2.80  27 2.83
                            31 2.85  32 2.85
  21  0.151  0.972  0.001-  73 1.96  67 2.00  77 2.08  84 2.09  42 2.14  47 2.16  25 2.81  34 2.84

  22  0.841  0.805  0.504-  69 1.98  74 2.01  70 2.03  68 2.15  75 2.18  76 2.19  40 2.85
  23  0.648  0.970  0.986-  79 2.01  85 2.03  59 2.04  54 2.11  72 2.14  65 2.21  38 2.76  29 2.84

  24  0.349  0.803  0.507-  88 2.01  87 2.05  82 2.05  81 2.06  86 2.12  80 2.14
  25  0.983  0.128  0.992-  72 1.81  54 1.88  61 1.92  47 1.95  67 1.98  41 2.00  14 2.80  21 2.81
                            30 2.83  34 2.87  26 2.92
  26  0.319  0.303  0.000-  43 1.90  47 1.92  41 1.93  48 1.95  42 1.99  49 2.00  19 2.83  33 2.88
                            29 2.90  25 2.92
  27  0.006  0.134  0.488-  76 1.81  63 1.89  69 1.89  58 1.90  50 1.95  44 1.98  40 2.82  20 2.83
                            32 2.87  14 2.89  36 2.95
  28  0.669  0.471  0.507-  52 1.86  68 1.89  57 1.92  62 1.93  75 1.94  46 2.00  35 2.79  31 2.82
                            18 2.86  39 2.95
  29  0.490  0.140  0.999-  42 1.82  84 1.89  49 1.91  53 1.95  59 1.95  79 1.99  17 2.76  23 2.84
                            38 2.89  26 2.90  15 2.93  30 2.98
  30  0.834  0.305  0.995-  61 1.85  60 1.88  54 1.90  53 1.93  55 1.98  59 2.00  25 2.83  19 2.84
                            37 2.91  29 2.98
  31  0.514  0.146  0.507-  62 1.88  46 1.88  81 1.93  51 1.94  88 1.94  56 1.97  28 2.82  15 2.84
                            20 2.85  36 2.89  40 2.94
  32  0.171  0.464  0.500-  58 1.85  87 1.92  80 1.94  45 1.96  64 1.97  50 1.97  18 2.84  20 2.85
                            27 2.87  39 2.90  35 2.94
  33  0.493  0.634  0.993-  43 1.84  65 1.85  71 1.91  85 1.94  78 1.95  48 1.96  34 2.86  11 2.87
                            26 2.88  38 2.90
  34  0.823  0.798  0.997-  65 1.87  73 1.91  71 1.93  67 1.93  72 1.98  66 2.02  37 2.82  21 2.84
                            33 2.86  25 2.87
  35  0.510  0.634  0.510-  74 1.88  68 1.90  52 1.92  82 1.93  45 1.94  87 1.96  28 2.79  18 2.85
                            32 2.94  11 2.95  40 2.95
  36  0.181  0.970  0.504-  44 1.88  51 1.93  70 1.93  81 1.94  76 1.98  86 2.04  31 2.89  39 2.92
                            27 2.95
  37  0.989  0.639  0.011-  60 1.87  66 1.91  55 1.92  77 1.93  73 1.95  83 2.00  34 2.82  30 2.91
                             7 2.95  38 2.97
  38  0.331  0.806  0.001-  79 1.89  84 1.95  77 1.95  83 1.95  78 1.98  85 1.98  23 2.76  29 2.89
                            33 2.90  37 2.97
  39  0.008  0.635  0.495-  86 1.87  70 1.88  75 1.89  64 1.90  57 1.93  80 1.99   7 2.85  32 2.90
                            36 2.92  28 2.95
  40  0.681  0.974  0.503-  74 1.87  63 1.92  88 1.92  69 1.93  56 1.98  82 2.02  20 2.80  27 2.82
                            22 2.85  31 2.94  35 2.95
  41  0.150  0.288  0.093-  26 1.93  25 2.00  19 2.19   9 2.27
  42  0.347  0.150  0.093-  29 1.82  26 1.99  21 2.14   6 2.36
  43  0.474  0.474  0.086-  33 1.84  26 1.90  17 2.10  11 2.28
  44  0.154  0.114  0.593-  36 1.88  27 1.98  18 2.13  12 2.36
  45  0.338  0.482  0.603-  35 1.94  32 1.96  18 2.08   4 2.31  13 2.36
  46  0.512  0.297  0.606-  31 1.88  28 2.00  18 2.10  13 2.28
  47  0.158  0.157  0.897-  26 1.92  25 1.95  21 2.16
  48  0.335  0.466  0.896-  26 1.95  33 1.96  19 1.98   4 2.30  13 2.35
  49  0.476  0.288  0.901-  29 1.91  26 2.00  17 2.09  13 2.31
  50  0.168  0.303  0.398-  27 1.95  32 1.97  18 2.09   6 2.26
  51  0.346  0.130  0.411-  36 1.93  31 1.94  18 2.08   6 2.24  15 2.36
  52  0.517  0.478  0.417-  28 1.86  35 1.92  18 2.02
  53  0.667  0.289  0.092-  30 1.93  29 1.95  17 2.03  16 2.37
  54  0.834  0.143  0.083-  25 1.88  30 1.90  23 2.11
  55  0.987  0.472  0.098-  37 1.92  30 1.98  19 2.21   9 2.37
  56  0.672  0.132  0.602-  31 1.97  40 1.98  20 2.01   8 2.26
  57  0.842  0.485  0.592-  28 1.92  39 1.93  20 2.13   8 2.27   7 2.37
  58  0.021  0.297  0.584-  32 1.85  27 1.90  20 2.00  14 2.19
  59  0.654  0.152  0.898-  29 1.95  30 2.00  23 2.04   8 2.26
  60  0.849  0.476  0.915-  37 1.87  30 1.88  17 2.12
  61  0.972  0.284  0.899-  30 1.85  25 1.92  19 2.06  14 2.21
  62  0.670  0.308  0.417-  31 1.88  28 1.93  20 2.03  16 2.37
  63  0.839  0.118  0.398-  27 1.89  40 1.92  20 2.13   1 2.22
  64  0.014  0.477  0.404-  39 1.90  32 1.97  20 2.08
  65  0.655  0.781  0.082-  33 1.85  34 1.87  23 2.21
  66  0.822  0.631  0.099-  37 1.91  34 2.02  17 2.02  16 2.35
  67  0.975  0.963  0.094-  34 1.93  25 1.98  21 2.00
  68  0.660  0.620  0.604-  28 1.89  35 1.90  22 2.15   2 2.33  13 2.35
  69  0.853  0.984  0.589-  27 1.89  40 1.93  22 1.98   2 2.34  14 2.37
  70  0.017  0.796  0.586-  39 1.88  36 1.93  22 2.03   7 2.25
  71  0.658  0.647  0.899-  33 1.91  34 1.93  17 2.21   2 2.24
  72  0.840  0.971  0.902-  25 1.81  34 1.98  23 2.14   2 2.24
  73  0.989  0.799  0.911-  34 1.91  37 1.95  21 1.96   7 2.36
  74  0.660  0.801  0.422-  40 1.87  35 1.88  22 2.01
  75  0.838  0.615  0.407-  39 1.89  28 1.94  22 2.18  16 2.25
  76  0.030  0.993  0.405-  27 1.81  36 1.98  22 2.19
  77  0.164  0.800  0.095-  37 1.93  38 1.95  21 2.08
  78  0.340  0.643  0.094-  33 1.95  38 1.98  19 2.21   5 2.26
  79  0.485  0.969  0.092-  38 1.89  29 1.99  23 2.01  15 2.22
  80  0.160  0.618  0.598-  32 1.94  39 1.99  24 2.14   4 2.32
  81  0.350  0.983  0.597-  31 1.93  36 1.94  24 2.06  12 2.27   3 2.38
  82  0.521  0.801  0.604-  35 1.93  40 2.02  24 2.05   3 2.32
  83  0.158  0.650  0.908-  38 1.95  19 1.98  37 2.00
  84  0.334  0.974  0.911-  29 1.89  38 1.95  21 2.09  12 2.29
  85  0.481  0.788  0.896-  33 1.94  38 1.98  23 2.03   3 2.25   4 2.31
  86  0.166  0.793  0.406-  39 1.87  36 2.04  24 2.12   5 2.29
  87  0.342  0.624  0.413-  32 1.92  35 1.96  24 2.05   5 2.31
  88  0.518  0.982  0.418-  40 1.92  31 1.94  24 2.01  15 2.22

  LATTYP: Found a hexagonal cell.
 ALAT       =    10.0190000534
 C/A-ratio  =     1.1196726572

  Lattice vectors:

 A1 = (  10.0190000534,   0.0000000000,   0.0000000000)
 A2 = (  -5.0095000267,   8.6767085668,   0.0000000000)
 A3 = (   0.0000000000,   0.0000000000,  11.2180004120)

Analysis of symmetry for initial positions (statically):
 Subroutine PRICEL returns:
 Original cell was already a primitive cell.

 Routine SETGRP: Setting up the symmetry group for a
 hexagonal supercell.

 Subroutine GETGRP returns: Found  1 space group operations
 (whereof  1 operations were pure point group operations)
 out of a pool of 24 trial point group operations.

The static configuration has the point symmetry C_1 .

Analysis of symmetry for dynamics (positions and initial velocities):
 Subroutine PRICEL returns:
[...]
   4      -0.003    -0.003     2.646    -0.058     2.647
   5      -0.001    -0.001     2.259    -0.091     2.259
   6      -0.004    -0.005     2.396    -0.082     2.397
   7       0.024     0.023     1.710    -0.097     1.711
   8      -0.006    -0.007     2.134    -0.058     2.135
   9      -0.007    -0.007     2.511    -0.117     2.511
  10      -0.016    -0.015     2.389    -0.121     2.388
  11       0.022     0.021     1.888    -0.121     1.889
  12       0.007     0.007     2.941    -0.103     2.941
  13      -0.011    -0.011     2.437    -0.063     2.437
  14       0.009     0.009     1.210    -0.042     1.210
  15       0.015     0.015     1.309    -0.050     1.309
  16       0.014     0.014     3.320    -0.124     3.320
  17       0.033     0.037    12.477     0.111    12.473
  18       0.036     0.040    12.035     0.116    12.031
  19       0.025     0.027    10.847     0.090    10.844
  20       0.048     0.051    12.647     0.133    12.644
  21       0.052     0.056    12.766     0.123    12.762
  22       0.049     0.053    14.629     0.131    14.625
  23       0.033     0.037    12.519     0.109    12.515
  24       0.059     0.060    12.078     0.118    12.077
  25     159.802   159.777    96.492  -137.332    96.518
  26     161.849   161.826    97.452  -140.272    97.474
  27     158.656   158.641    94.665  -135.672    94.679
  28     160.630   160.606    96.997  -138.441    97.021
  29     159.867   159.837    92.195  -137.645    92.225
  30     160.558   160.544    97.133  -138.397    97.148
  31     160.742   160.725    94.377  -138.774    94.394
  32     161.598   161.577    94.521  -139.939    94.542
  33     159.411   159.391    94.666  -136.870    94.686
  34     162.042   162.026    98.715  -140.324    98.731
  35     160.823   160.802    97.714  -138.705    97.736
  36     162.719   162.699   100.588  -141.361   100.608
  37     161.445   161.420    96.083  -139.660    96.108
  38     163.065   163.041    95.231  -141.967    95.255
  39     160.040   160.026    93.207  -137.773    93.222
  40     161.757   161.741    97.843  -140.089    97.859
  41       2.155     2.155     7.711    -2.125     7.710
  42       3.164     3.171     8.535    -3.280     8.528
  43       3.456     3.460     9.247    -3.582     9.243
  44       1.417     1.425     6.521    -1.350     6.514
  45       1.426     1.431     6.232    -1.370     6.227
  46       2.466     2.471     8.542    -2.447     8.537
  47       3.105     3.109    10.026    -3.107    10.022
  48       1.224     1.225     6.536    -1.104     6.534
  49       1.257     1.263     5.713    -1.199     5.707
  50       2.027     2.030     7.275    -2.005     7.272
  51       1.814     1.816     7.377    -1.752     7.375
  52       3.959     3.967    11.347    -4.041    11.339
  53       2.125     2.123     7.353    -2.100     7.355
  54       2.740     2.746     8.307    -2.785     8.301
  55       1.729     1.732     7.341    -1.661     7.339
  56       1.431     1.438     6.969    -1.328     6.962
  57       1.631     1.633     5.303    -1.648     5.302
  58       3.821     3.828    10.223    -3.941    10.216
  59       0.697     0.698     4.395    -0.615     4.394
  60       2.891     2.894     8.194    -2.974     8.192
[...]
  74       2.662     2.666     7.202    -2.770     7.198
  75       1.402     1.407     5.487    -1.396     5.482
  76       2.787     2.795     8.195    -2.856     8.187
  77       1.817     1.821     6.332    -1.826     6.328
  78       1.524     1.529     6.384    -1.467     6.379
  79       2.128     2.131     7.281    -2.125     7.279
  80       1.161     1.168     5.556    -1.099     5.549
  81       2.062     2.063     6.864    -2.074     6.863
  82       0.937     0.943     5.193    -0.857     5.187
  83       0.366     0.366     3.666    -0.269     3.666
  84       1.682     1.686     6.290    -1.668     6.285
  85       1.883     1.888     7.428    -1.824     7.422
  86       2.409     2.409     7.713    -2.422     7.712
  87       2.011     2.015     6.885    -2.008     6.881
  88       1.915     1.918     6.029    -1.952     6.025

 Dipolar hyperfine coupling parameters (MHz)
  ion      A_xx      A_yy      A_zz      A_xy      A_xz      A_yz
   1      -0.783    -0.666     1.449     0.141    -0.201     0.194
   2      -0.821    -0.688     1.509     0.181     0.408    -0.147
   3      -0.707    -0.658     1.366    -0.125    -0.369    -0.305
   4      -0.667    -0.858     1.525     0.028     0.025     0.526
   5      -0.532    -0.815     1.348     0.018    -0.056    -0.485
   6      -0.564    -0.845     1.409     0.043    -0.145    -0.491
   7      -0.932    -0.859     1.791     0.026    -0.072    -0.013
   8      -0.704    -0.762     1.466     0.102     0.458    -0.173
   9      -0.809    -0.706     1.515    -0.103     0.458     0.234
  10      -0.793    -0.730     1.524    -0.123     0.409     0.261
  11      -0.926    -0.877     1.804     0.048     0.036    -0.015
  12      -0.660    -0.894     1.553     0.068    -0.083     0.436
  13      -0.838    -0.687     1.525    -0.032    -0.505    -0.290
  14      -0.975    -0.917     1.892     0.079    -0.060    -0.056
  15      -0.898    -0.932     1.830     0.048     0.098     0.156
  16      -0.848    -0.745     1.593     0.161    -0.407     0.167
  17       1.561     1.304    -2.866     0.035     0.025     0.043
  18       1.357     1.481    -2.838     0.067     0.142     0.024
  19       1.371     1.381    -2.752    -0.011    -0.066     0.091
  20       1.685     1.240    -2.925    -0.004    -0.048    -0.045
  21       1.589     1.365    -2.955     0.282     0.096    -0.002
  22       1.547     1.373    -2.920    -0.111    -0.020    -0.102
  23       1.510     1.333    -2.843     0.157    -0.074     0.074
  24       1.341     1.497    -2.838     0.011     0.102     0.052
  25       0.994     0.421    -1.415    -0.166     0.510    -0.661
  26       0.301     1.376    -1.678    -0.580    -0.369     0.499
  27       0.244     0.604    -0.848     1.059     0.835     0.345
  28      -1.801     2.208    -0.407     0.258     1.338    -0.544
  29      -0.762     1.360    -0.598    -0.558    -0.369     0.146
  30       0.879    -0.453    -0.426     1.363     1.097     0.006
  31       0.202    -0.624     0.422    -0.383     0.107    -0.085
  32       1.152    -0.892    -0.259    -1.264     0.356    -0.144
  33       1.718    -0.337    -1.381    -1.178     0.292     0.805
  34      -1.087     0.882     0.204    -2.133     0.269     0.436
  35       0.360    -0.500     0.140    -0.061    -0.493    -0.580
  36      -0.989    -0.421     1.409     0.704     1.156     0.480
  37      -0.024    -1.745     1.769    -1.300     0.513     0.483
  38      -0.101    -0.533     0.634     0.073    -0.281    -0.864
  39      -0.384    -0.008     0.392    -0.972     0.624    -0.625
  40      -0.951     0.059     0.892     0.796     0.588     0.399
  41      -4.576     4.726    -0.149    -5.597     3.827    -3.530
  42      -4.533     4.017     0.515     5.670     3.114     3.069
  43       6.957    -8.089     1.132    -1.118    -4.570     2.195
  44      -1.600     2.998    -1.399     7.186    -0.688    -4.339
  45      -2.728     3.313    -0.586    -5.544    -1.489     3.457
  46       4.733    -4.472    -0.261     1.099     4.246    -0.919
  47      -2.348     4.258    -1.910    -6.842     0.907    -3.907
  48       6.130    -4.712    -1.418    -1.071    -3.836     1.217
  49      -2.058     2.792    -0.734     4.877     1.604     4.184
  50       4.509    -6.046     1.537    -1.052     5.925    -0.825
  51      -2.270     2.804    -0.535    -4.859    -2.149     3.850
  52      -3.706     2.681     1.025     5.871    -3.111    -5.022
  53      -3.788     4.155    -0.367    -5.299     1.442    -2.809
  54      -2.089     2.215    -0.126     5.779     3.096     3.045
  55       5.285    -5.689     0.404     2.100    -5.125    -1.394
  56      -3.292     3.938    -0.646     4.392    -1.630    -3.761
  57      -3.774     3.601     0.173    -3.822    -1.936     3.755
  58       7.275    -7.415     0.140    -1.770     3.975    -0.118
  59      -3.018     2.971     0.047    -4.758     1.762    -3.355
  60       6.237    -5.911    -0.327     2.410    -3.826    -1.795
[...]
  74       5.361    -6.918     1.557     1.344     4.098     0.162
  75      -4.000     4.426    -0.426    -5.209    -0.931     3.501
  76      -3.583     3.946    -0.363     5.817    -2.188    -2.600
  77      -4.770     2.230     2.540    -4.827     2.901    -3.267
  78      -1.643     1.483     0.160     5.976     1.968     4.553
  79       4.490    -6.316     1.825     0.004    -5.471    -1.567
  80      -0.453     0.678    -0.225     6.057    -1.909    -3.627
  81      -3.262     1.273     1.989    -4.466    -2.702     3.463
  82       4.807    -5.373     0.566    -0.121     4.643     0.166
  83      -1.787     1.889    -0.102    -4.218     2.121    -4.409
  84       5.092    -6.330     1.238     1.005    -4.382    -0.488
  85      -2.679     3.287    -0.608     3.688     2.378     1.268
  86       5.074    -5.973     0.898    -2.217     4.790    -0.023
  87      -3.103     2.881     0.222    -4.893    -2.381     3.377
  88      -3.741     0.526     3.215     4.285    -3.456    -4.102

 Total hyperfine coupling parameters after diagonalization (MHz)
 (convention: |A_zz| > |A_xx| > |A_yy|)
  ion      A_xx      A_yy      A_zz     asymmetry (A_yy - A_xx)/ A_zz
   1       2.232     1.896     4.287      -0.078
   2       1.859     1.408     4.009      -0.113
   3       1.741     1.385     3.763      -0.095
   4       1.981     1.677     4.283      -0.071
   5       1.725     1.339     3.712      -0.104
   6       1.823     1.449     3.919      -0.095
   7       0.860     0.770     3.504      -0.026
   8       1.485     1.216     3.703      -0.073
   9       1.869     1.533     4.132      -0.081
  10       1.752     1.406     4.005      -0.086
  11       1.041     0.933     3.693      -0.029
  12       2.299     1.952     4.572      -0.076
  13       1.749     1.464     4.098      -0.069
  14       0.346     0.180     3.104      -0.054
  15       0.435     0.341     3.151      -0.030
  16       2.689     2.284     4.987      -0.081
  17      13.774     9.607    14.040      -0.297
  18      13.362     9.188    13.543      -0.308
  19      12.208     8.089    12.235      -0.337
  20      13.885     9.718    14.329      -0.291
  21      13.937     9.805    14.544      -0.284
  22      15.947    11.702    16.226      -0.262
  23      13.759     9.669    14.117      -0.290
  24      13.419     9.236    13.575      -0.308
  25      96.990    94.818    97.744      -0.022
  26      97.532    95.680    99.211      -0.019
  27      94.257    93.350    96.431      -0.009
  28      97.369    94.356    99.337      -0.030
  29      91.814    91.113    93.748      -0.007
  30      96.705    95.500    99.238      -0.012
  31      94.646    93.618    94.917      -0.011
  32      94.212    93.046    96.367      -0.012
  33      94.449    92.667    96.942      -0.018
  34      98.989    96.201   101.002      -0.028
  35      97.814    96.814    98.579      -0.010
  36     100.186    98.949   102.690      -0.012
  37      96.743    93.561    98.020      -0.032
  38      95.095    94.257    96.412      -0.009
  39      92.918    92.030    94.717      -0.009
  40      97.914    96.421    99.241      -0.015
  41       5.786    -0.120    17.464      -0.338
  42       7.264     0.881    17.439      -0.366
  43       8.130     0.657    18.942      -0.395
  44       4.465    -1.096    16.172      -0.344
  45       4.105     0.152    14.423      -0.274
  46       6.562     3.329    15.721      -0.206
  47       7.278     2.974    19.814      -0.217
  48       3.745     1.417    14.440      -0.161
  49       2.997     0.380    13.743      -0.190
  50       4.186     1.109    16.520      -0.186
  51       4.579     2.152    15.394      -0.158
  52       8.497     4.142    21.380      -0.204
  53       5.796     0.916    15.352      -0.318
  54       6.163     2.058    16.683      -0.246
  55       4.508     1.215    16.293      -0.202
  56       4.371     1.592    14.924      -0.186
  57       3.112    -0.121    12.914      -0.250
  58       8.644     2.573    19.432      -0.312
  59       2.522    -1.253    11.914      -0.317
  60       6.188     1.602    16.785      -0.273
[...]
  74       6.196     0.124    15.274      -0.398
  75       3.693    -1.090    13.842      -0.346
  76       6.633     1.358    16.570      -0.318
  77       5.694    -1.048    14.337      -0.470
  78       4.141    -0.184    15.181      -0.285
  79       5.159     0.547    16.130      -0.286
  80       3.644    -0.648    13.652      -0.314
  81       5.416     0.820    14.352      -0.320
  82       2.783    -0.200    12.978      -0.230
  83      -1.077     0.722    11.352       0.158
  84       4.667    -0.134    14.323      -0.335
  85       6.691     2.344    13.232      -0.328
  86       5.799     1.171    16.168      -0.286
  87       4.922     0.996    14.724      -0.267
  88       3.984    -0.459    14.549      -0.305

 stress matrix after NEB project (eV)
    -50.65371     -2.98002     -3.41499
     -2.99418    -44.53157      5.96134
     -3.42657      5.94974    -67.35120
  FORCES: max atom, RMS     2.245315    1.099542
  FORCE total and by dimension   10.314621    2.207796
  Stress total and by dimension   95.902186   67.351200

 total charge

[...]

 magnetization (x)

# of ion       s       p       d       tot
    1        0.002   0.001   0.000   0.003
    2        0.002   0.000   0.000   0.002
    3        0.002   0.000   0.000   0.002
    4        0.002   0.000   0.000   0.002
    5        0.002   0.000   0.000   0.002
    6        0.002   0.000   0.000   0.002
    7        0.001   0.001   0.000   0.002
    8        0.001   0.000   0.000   0.001
    9        0.002   0.000   0.000   0.002
   10        0.002  -0.000   0.000   0.002
   11        0.001   0.001   0.000   0.002
   12        0.002   0.000   0.000   0.002
   13        0.002  -0.000   0.000   0.002
   14        0.001   0.000   0.000   0.001
   15        0.001   0.000   0.000   0.001
   16        0.002   0.001   0.000   0.003
   17        0.007   0.002   0.001   0.010
   18        0.007   0.002   0.001   0.010
   19        0.006   0.002   0.001   0.009
   20        0.007   0.002   0.001   0.010
   21        0.007   0.002   0.001   0.011
   22        0.008   0.002   0.001   0.012
   23        0.007   0.002   0.001   0.010
   24        0.007   0.002   0.001   0.010
   25        0.015   0.030   2.731   2.776
   26        0.016   0.030   2.772   2.818
   27        0.015   0.032   2.706   2.753
   28        0.016   0.030   2.746   2.792
   29        0.014   0.030   2.733   2.777
   30        0.016   0.031   2.745   2.791
   31        0.015   0.029   2.750   2.794
   32        0.015   0.029   2.766   2.810
   33        0.015   0.030   2.723   2.768
   34        0.016   0.029   2.775   2.821
   35        0.016   0.031   2.752   2.799
   36        0.016   0.030   2.790   2.836
   37        0.015   0.030   2.764   2.809
   38        0.015   0.029   2.797   2.840
   39        0.015   0.030   2.735   2.780
   40        0.016   0.030   2.771   2.816
   41        0.002   0.032   0.000   0.034
   42        0.002   0.050   0.000   0.052
   43        0.002   0.054   0.000   0.057
   44        0.002   0.019   0.000   0.021
   45        0.002   0.020   0.000   0.022
   46        0.002   0.037   0.000   0.039
   47        0.003   0.048   0.000   0.051
   48        0.002   0.016   0.000   0.018
   49        0.002   0.017   0.000   0.019
   50        0.002   0.030   0.000   0.032
   51        0.002   0.026   0.000   0.028
   52        0.003   0.063   0.000   0.065
   53        0.002   0.032   0.000   0.034
   54        0.002   0.042   0.000   0.045
   55        0.002   0.024   0.000   0.026
   56        0.002   0.019   0.000   0.021
   57        0.001   0.025   0.000   0.026
   58        0.003   0.061   0.000   0.063
   59        0.001   0.008   0.000   0.009
   60        0.002   0.045   0.000   0.047
[...]
   74        0.002   0.041   0.000   0.043
   75        0.002   0.019   0.000   0.021
   76        0.002   0.043   0.000   0.045
   77        0.002   0.027   0.000   0.028
   78        0.002   0.022   0.000   0.023
   79        0.002   0.032   0.000   0.034
   80        0.002   0.015   0.000   0.017
   81        0.002   0.031   0.000   0.033
   82        0.002   0.011   0.000   0.013
   83        0.001   0.002   0.000   0.003
   84        0.002   0.024   0.000   0.026
   85        0.002   0.028   0.000   0.030
   86        0.002   0.037   0.000   0.039
   87        0.002   0.030   0.000   0.032
   88        0.002   0.029   0.000   0.030
tot          0.422   2.085  44.064  46.571