 vasp.5.4.4.18Apr17-6-g9f103f2a35 (build Dec 02 2020 12:53:39) complex

 executed on             LinuxIFC date 2021.08.03  00:26:07

 INCAR:
 POTCAR:    PAW_PBE Na_pv 19Sep2006
 POTCAR:    PAW_PBE Mg_pv 13Apr2007
 POTCAR:    PAW_PBE Mn_pv 02Aug2007
 POTCAR:    PAW_PBE O 08Apr2002

 POTCAR:    PAW_PBE Na_pv 19Sep2006
   VRHFIN =Na: p6s1

   TITEL  = PAW_PBE Na_pv 19Sep2006
   POMASS =   22.990; ZVAL   =    7.000    mass and valenz
   ENMAX  =  259.561; ENMIN  =  194.671 eV

 POTCAR:    PAW_PBE Mg_pv 13Apr2007
   VRHFIN =Mg: p6s2

   TITEL  = PAW_PBE Mg_pv 13Apr2007
   POMASS =   24.305; ZVAL   =    8.000    mass and valenz
   ENMAX  =  403.929; ENMIN  =  302.947 eV

 POTCAR:    PAW_PBE Mn_pv 02Aug2007
   VRHFIN =Mn: 3p4s3d

   TITEL  = PAW_PBE Mn_pv 02Aug2007
   POMASS =   54.938; ZVAL   =   13.000    mass and valenz
   ENMAX  =  269.864; ENMIN  =  202.398 eV

 POTCAR:    PAW_PBE O 08Apr2002
   VRHFIN =O: s2p4

   TITEL  = PAW_PBE O 08Apr2002
   POMASS =   16.000; ZVAL   =    6.000    mass and valenz
   ENMAX  =  400.000; ENMIN  =  300.000 eV

 Optimization of the real space projectors (new method)

 maximal supplied QI-value         = 17.01
 optimisation between [QCUT,QGAM] = [ 10.20, 20.41] = [ 29.16,116.64] Ry
 Optimized for a Real-space Cutoff    1.30 Angstroem

   l    n(q)    QCUT    max X(q) W(low)/X(q) W(high)/X(q)  e(spline)
   1      7    10.205     4.940    0.23E-03    0.84E-03    0.11E-06
   1      7    10.205     6.253    0.40E-03    0.13E-02    0.18E-06
   0      8    10.205    37.438    0.23E-03    0.37E-03    0.42E-07
   0      8    10.205     9.606    0.16E-03    0.26E-03    0.31E-07
 Optimization of the real space projectors (new method)

[...]

   l    n(q)    QCUT    max X(q) W(low)/X(q) W(high)/X(q)  e(spline)
   1      8    10.239     3.658    0.23E-03    0.30E-03    0.98E-07
   1      8    10.239     5.612    0.32E-03    0.65E-03    0.21E-06
   2      7    10.239    55.373    0.42E-03    0.45E-03    0.65E-07
   2      7    10.239    50.863    0.43E-03    0.48E-03    0.67E-07
   0      8    10.239    79.536    0.11E-03    0.21E-03    0.56E-07
   0      8    10.239    38.668    0.96E-04    0.19E-03    0.52E-07
 Optimization of the real space projectors (new method)

 maximal supplied QI-value         = 24.76
 optimisation between [QCUT,QGAM] = [ 10.15, 20.30] = [ 28.85,115.39] Ry
 Optimized for a Real-space Cutoff    1.38 Angstroem

   l    n(q)    QCUT    max X(q) W(low)/X(q) W(high)/X(q)  e(spline)
   0      8    10.150    20.381    0.22E-03    0.32E-03    0.29E-06
   0      8    10.150    15.268    0.23E-03    0.35E-03    0.30E-06
   1      8    10.150     5.964    0.46E-03    0.53E-03    0.21E-06
   1      8    10.150     5.382    0.38E-03    0.45E-03    0.19E-06
  PAW_PBE Na_pv 19Sep2006               :
  PAW_PBE Mg_pv 13Apr2007               :
  PAW_PBE Mn_pv 02Aug2007               :
  PAW_PBE O 08Apr2002                   :

 POSCAR: Na Mg Mn  O
  positions in cartesian coordinates

 METAGGA = SCAN     LMAXTAU =  6    LMIXTAU =  F

 VTST: version 3.2, (02/03/18)

 CHAIN: initializing optimizer

 OPT: Using VASP Dynamics algorithm
 CHAIN: Read ICHAIN            0

 POSCAR: Na Mg Mn  O
  positions in cartesian coordinates

 ion  position               nearest neighbor table
   1  0.507  0.173  0.253-  43 2.27  16 2.74  26 2.93
   2  0.220  0.831  0.747-  44 2.23  70 2.31  47 2.36  73 2.37
   3  0.377  0.191  0.747-  45 2.24  48 2.28  47 2.35
   4  0.508  0.571  0.745-  82 2.27  85 2.33  80 2.34  83 2.34
   5  0.695  0.529  0.252-  65 2.26  74 2.34  52 2.35  78 2.37  35 2.79  33 2.81
   6  0.505  0.842  0.255-  79 2.29  88 2.34  51 2.34  86 2.37  77 2.38
   7  0.853  0.670  0.750-  71 2.25  72 2.32  68 2.38
   8  0.021  0.027  0.745-  61 2.30  58 2.30
   9  0.988  0.336  0.243-  53 2.28  75 2.30  66 2.37
  10  0.140  0.691  0.248-  66 2.30  76 2.33  67 2.37
  11  0.345  0.477  0.248-  64 2.21  78 2.29  87 2.32  55 2.38
  12  0.164  0.469  0.749-  60 2.24  57 2.27  80 2.31  83 2.37  39 2.87  37 2.88
  13  0.779  0.331  0.753-  46 2.26  49 2.34  71 2.37  28 2.92
  14  0.635  0.978  0.750-  81 2.18  84 2.26  31 2.90  29 2.98
  15  0.838  0.961  0.248-  88 2.22  79 2.23
  16  0.200  0.081  0.248-  41 2.18  50 2.29   1 2.74  25 2.93  27 2.93
  17  0.851  0.345  0.003-  53 1.99  60 2.00  49 2.00  66 2.01  71 2.11  43 2.18  33 2.80  37 2.82
                            34 2.83  30 2.84
  18  0.515  0.184  0.512-  46 1.98  50 2.00  44 2.10  52 2.12  51 2.13  45 2.17  28 2.82  32 2.83
                            27 2.84
  19  0.341  0.345  0.994-  83 2.03  61 2.04  55 2.10  41 2.12  78 2.14  48 2.17  38 2.81  30 2.83
                            37 2.85
  20  0.021  0.185  0.497-  58 2.02  64 2.02  63 2.04  62 2.05  57 2.07  56 2.09  39 2.84  27 2.85

  21  0.334  0.831  0.997-  67 1.93  73 1.94  42 2.01  77 2.06  84 2.08  47 2.12  37 2.80  34 2.84
                            38 2.86
  22  0.014  0.680  0.492-  70 1.99  68 2.03  74 2.08  75 2.11  69 2.12  76 2.13  39 2.86
  23  0.838  0.832  0.006-  65 2.02  54 2.02  85 2.03  59 2.07  79 2.14  72 2.15  34 2.86
  24  0.520  0.690  0.505-  81 1.98  88 2.01  82 2.03  87 2.08  80 2.18  86 2.21  31 2.84
  25  0.175  0.011  0.993-  41 1.85  61 1.88  67 1.92  54 1.92  47 1.93  72 2.00  30 2.87  26 2.88
                            16 2.93  34 2.94
  26  0.506  0.162  0.992-  42 1.88  47 1.89  49 1.92  48 1.95  43 1.98  41 1.98  29 2.83  25 2.88
                            33 2.88   1 2.93
  27  0.188  0.024  0.506-  44 1.87  63 1.89  50 1.89  69 1.93  58 1.94  76 1.98  18 2.84  20 2.85
                            32 2.85  36 2.91  40 2.93  16 2.93
  28  0.840  0.340  0.498-  62 1.81  57 1.92  75 1.95  68 1.98  52 1.98  46 1.98  31 2.80  18 2.82
                            39 2.90  13 2.92  35 2.93
  29  0.675  0.006  0.014-  42 1.85  79 1.90  53 1.91  49 1.92  84 1.97  59 2.05  26 2.83  38 2.93
                            30 2.95  14 2.98
  30  0.014  0.181  0.998-  61 1.86  59 1.87  55 1.89  60 1.92  53 1.96  54 1.98  19 2.83  17 2.84
                            37 2.85  25 2.87  29 2.95
  31  0.679  0.017  0.495-  51 1.88  46 1.90  62 1.91  88 1.91  56 1.92  81 1.98  28 2.80  24 2.84
                            40 2.89  14 2.90  36 2.90
  32  0.358  0.353  0.500-  87 1.83  50 1.88  80 1.91  45 1.93  64 1.98  58 2.03  35 2.81  18 2.83
                            27 2.85  39 2.98
  33  0.677  0.494  0.003-  71 1.88  65 1.90  48 1.91  43 1.93  85 1.97  78 2.02  17 2.80   5 2.81
                            34 2.86  26 2.88  38 3.05
  34  0.007  0.672  0.996-  67 1.86  71 1.92  65 1.92  72 1.95  66 1.96  73 2.04  17 2.83  21 2.84
                            23 2.86  33 2.86  37 2.89  25 2.94
  35  0.681  0.520  0.500-  74 1.87  52 1.90  68 1.95  82 1.99  87 1.99  45 2.01   5 2.79  32 2.81
                            40 2.91  28 2.93
  36  0.345  0.846  0.498-  81 1.91  44 1.91  51 1.95  86 1.95  70 1.96  76 2.00  31 2.90  39 2.90
                            27 2.91
  37  0.177  0.509  0.003-  73 1.85  66 1.88  60 1.88  55 1.92  83 1.93  77 2.00  21 2.80  38 2.80
                            17 2.82  30 2.85  19 2.85  12 2.88  34 2.89
  38  0.499  0.668  0.007-  84 1.89  83 1.89  77 1.92  78 1.98  85 2.02  79 2.02  37 2.80  19 2.81
                            21 2.86  29 2.93  33 3.05
  39  0.174  0.512  0.495-  70 1.88  57 1.90  86 1.91  75 1.93  80 1.94  64 2.01  20 2.84  22 2.86
                            12 2.87  36 2.90  28 2.90  32 2.98
  40  0.850  0.855  0.501-  74 1.87  56 1.88  69 1.91  63 1.92  82 1.99  88 2.06  31 2.89  35 2.91
                            27 2.93
  41  0.335  0.157  0.085-  25 1.85  26 1.98  19 2.12  16 2.18
  42  0.508  0.007  0.085-  29 1.85  26 1.88  21 2.01
  43  0.653  0.325  0.101-  33 1.93  26 1.98  17 2.18   1 2.27
  44  0.329  0.994  0.595-  27 1.87  36 1.91  18 2.10   2 2.23
  45  0.515  0.370  0.610-  32 1.93  35 2.01  18 2.17   3 2.24
  46  0.681  0.170  0.596-  31 1.90  18 1.98  28 1.98  13 2.26
  47  0.338  0.015  0.900-  26 1.89  25 1.93  21 2.12   3 2.35   2 2.36
  48  0.527  0.337  0.902-  33 1.91  26 1.95  19 2.17   3 2.28
  49  0.680  0.166  0.917-  29 1.92  26 1.92  17 2.00  13 2.34
  50  0.346  0.185  0.416-  32 1.88  27 1.89  18 2.00  16 2.29
  51  0.515  0.007  0.407-  31 1.88  36 1.95  18 2.13   6 2.34
  52  0.685  0.364  0.406-  35 1.90  28 1.98  18 2.12   5 2.35
  53  0.846  0.172  0.094-  29 1.91  30 1.96  17 1.99   9 2.28
  54  0.017  0.013  0.088-  25 1.92  30 1.98  23 2.02
  55  0.162  0.341  0.095-  30 1.89  37 1.92  19 2.10  11 2.38
  56  0.835  0.007  0.588-  40 1.88  31 1.92  20 2.09
  57  0.011  0.359  0.588-  39 1.90  28 1.92  20 2.07  12 2.27
  58  0.187  0.186  0.601-  27 1.94  20 2.02  32 2.03   8 2.30
  59  0.853  0.018  0.915-  30 1.87  29 2.05  23 2.07
  60  0.023  0.350  0.910-  37 1.88  30 1.92  17 2.00  12 2.24
  61  0.161  0.165  0.908-  30 1.86  25 1.88  19 2.04   8 2.30
  62  0.841  0.188  0.412-  28 1.81  31 1.91  20 2.05
  63  0.024  0.007  0.411-  27 1.89  40 1.92  20 2.04
  64  0.195  0.353  0.400-  32 1.98  39 2.01  20 2.02  11 2.21
  65  0.840  0.655  0.091-  33 1.90  34 1.92  23 2.02   5 2.26
  66  0.024  0.519  0.094-  37 1.88  34 1.96  17 2.01  10 2.30   9 2.37
  67  0.166  0.839  0.075-  34 1.86  25 1.92  21 1.93  10 2.37
  68  0.843  0.510  0.590-  35 1.95  28 1.98  22 2.03   7 2.38
  69  0.016  0.861  0.591-  40 1.91  27 1.93  22 2.12
  70  0.179  0.673  0.585-  39 1.88  36 1.96  22 1.99   2 2.31
  71  0.840  0.519  0.904-  33 1.88  34 1.92  17 2.11   7 2.25  13 2.37
  72  0.016  0.835  0.897-  34 1.95  25 2.00  23 2.15   7 2.32
  73  0.178  0.659  0.907-  37 1.85  21 1.94  34 2.04   2 2.37
  74  0.830  0.687  0.413-  35 1.87  40 1.87  22 2.08   5 2.34
  75  0.006  0.492  0.400-  39 1.93  28 1.95  22 2.11   9 2.30
  76  0.193  0.871  0.398-  27 1.98  36 2.00  22 2.13  10 2.33
  77  0.343  0.670  0.105-  38 1.92  37 2.00  21 2.06   6 2.38
  78  0.521  0.514  0.103-  38 1.98  33 2.02  19 2.14  11 2.29   5 2.37
  79  0.662  0.841  0.107-  29 1.90  38 2.02  23 2.14  15 2.23   6 2.29
  80  0.326  0.494  0.592-  32 1.91  39 1.94  24 2.18  12 2.31   4 2.34
  81  0.509  0.856  0.591-  36 1.91  31 1.98  24 1.98  14 2.18
  82  0.690  0.687  0.600-  35 1.99  40 1.99  24 2.03   4 2.27
  83  0.342  0.523  0.906-  38 1.89  37 1.93  19 2.03   4 2.34  12 2.37
  84  0.523  0.835  0.914-  38 1.89  29 1.97  21 2.08  14 2.26
  85  0.665  0.657  0.913-  33 1.97  38 2.02  23 2.03   4 2.33
  86  0.326  0.676  0.400-  39 1.91  36 1.95  24 2.21   6 2.37
  87  0.505  0.506  0.407-  32 1.83  35 1.99  24 2.08  11 2.32
  88  0.679  0.857  0.401-  31 1.91  24 2.01  40 2.06  15 2.22   6 2.34

  LATTYP: Found a hexagonal cell.
 ALAT       =    10.0190000534
 C/A-ratio  =     1.1196726572

  Lattice vectors:

 A1 = (  10.0190000534,   0.0000000000,   0.0000000000)
 A2 = (  -5.0095000267,   8.6767085668,   0.0000000000)
 A3 = (   0.0000000000,   0.0000000000,  11.2180004120)

Analysis of symmetry for initial positions (statically):
 Subroutine PRICEL returns:
 Original cell was already a primitive cell.

 Routine SETGRP: Setting up the symmetry group for a
 hexagonal supercell.

 Subroutine GETGRP returns: Found  1 space group operations
[...]
   4       0.012     0.012     2.548    -0.105     2.548
   5      -0.007    -0.006     0.299    -0.031     0.298
   6       0.000     0.000     3.076    -0.077     3.076
   7       0.006     0.007     2.881    -0.103     2.880
   8      -0.002    -0.001     2.825    -0.116     2.824
   9       0.020     0.020     3.497    -0.139     3.497
  10       0.002     0.002     2.560    -0.135     2.560
  11       0.004     0.003     2.838    -0.071     2.839
  12       0.006     0.006     1.337    -0.057     1.337
  13       0.010     0.010     1.593    -0.100     1.593
  14       0.013     0.013     1.327    -0.061     1.327
  15      -0.008    -0.008     1.981    -0.057     1.981
  16       0.012     0.012     2.027    -0.073     2.027
  17       0.041     0.043    12.665     0.130    12.663
  18       0.023     0.028    11.786     0.118    11.782
  19       0.022     0.026    12.021     0.108    12.017
  20       0.067     0.070    13.021     0.144    13.019
  21       0.084     0.086    14.024     0.162    14.022
  22       0.064     0.068    13.363     0.121    13.359
  23       0.063     0.064    11.919     0.108    11.917
  24       0.037     0.040    11.633     0.103    11.630
  25     160.474   160.456    97.447  -138.255    97.465
  26     161.447   161.427    99.962  -139.598    99.982
  27     160.278   160.265    94.192  -138.012    94.205
  28     161.231   161.206    97.996  -139.328    98.020
  29     161.674   161.660    99.449  -139.863    99.462
  30     160.495   160.475    98.079  -138.261    98.099
  31     160.859   160.845    96.578  -138.726    96.592
  32     160.354   160.332    91.420  -138.125    91.442
  33     161.006   160.991    96.142  -139.204    96.157
  34     161.524   161.508    98.888  -139.771    98.904
  35     162.093   162.068    97.011  -140.560    97.036
  36     162.585   162.571    99.062  -141.156    99.075
  37     159.219   159.200    93.277  -136.616    93.295
  38     161.744   161.721    93.206  -140.273    93.229
  39     160.909   160.895    95.958  -139.073    95.971
  40     161.515   161.493    98.000  -139.758    98.021
  41       1.905     1.912     6.480    -1.924     6.473
  42       3.392     3.399     9.689    -3.490     9.681
  43       2.460     2.462     9.242    -2.402     9.240
  44       2.993     2.999     8.581    -3.070     8.575
  45       2.333     2.333     9.067    -2.247     9.066
  46       2.293     2.292     7.901    -2.269     7.901
  47       2.825     2.826     8.342    -2.883     8.340
  48       2.697     2.698     8.661    -2.703     8.660
  49       1.959     1.959     6.475    -1.972     6.476
  50       3.152     3.154     8.523    -3.257     8.521
  51       2.175     2.175     7.112    -2.187     7.112
  52       2.788     2.792     8.698    -2.818     8.694
  53       2.108     2.104     7.215    -2.095     7.218
  54       1.241     1.245     5.134    -1.211     5.130
  55       3.420     3.424     9.756    -3.479     9.752
  56       3.659     3.668    10.419    -3.738    10.410
  57       1.998     2.004     7.413    -1.977     7.407
  58       1.812     1.816     7.285    -1.750     7.281
  59       1.921     1.925     7.215    -1.889     7.212
  60       2.154     2.157     7.044    -2.177     7.041
[...]
  74       3.486     3.490    10.308    -3.556    10.304
  75       0.905     0.908     4.918    -0.841     4.915
  76       0.589     0.596     5.375    -0.436     5.369
  77       2.472     2.474     9.102    -2.416     9.100
  78       1.285     1.293     5.813    -1.234     5.804
  79       1.726     1.729     5.989    -1.735     5.986
  80       1.772     1.776     6.273    -1.763     6.268
  81       1.795     1.798     7.425    -1.727     7.422
  82       0.640     0.642     4.769    -0.529     4.767
  83       2.642     2.647     7.628    -2.712     7.623
  84       1.839     1.845     7.876    -1.765     7.869
  85      -0.179    -0.174     2.655     0.291     2.649
  86       2.572     2.575     8.586    -2.570     8.583
  87       2.976     2.982     8.808    -3.044     8.803
  88       1.495     1.498     6.157    -1.446     6.155

 Dipolar hyperfine coupling parameters (MHz)
  ion      A_xx      A_yy      A_zz      A_xy      A_xz      A_yz
   1      -0.671    -0.648     1.319    -0.080    -0.062     0.033
   2      -0.808    -0.630     1.439    -0.145    -0.388    -0.204
   3      -0.791    -0.771     1.562     0.093     0.393    -0.302
   4      -0.602    -0.802     1.403    -0.115    -0.088     0.373
   5      -0.913    -1.025     1.938    -0.027    -0.081     0.023
   6      -0.941    -0.702     1.642     0.102    -0.452     0.291
   7      -0.878    -0.690     1.568     0.114     0.522    -0.278
   8      -0.688    -0.986     1.674     0.009     0.017     0.543
   9      -0.855    -0.703     1.559     0.191    -0.540     0.160
  10      -0.742    -0.697     1.439    -0.117     0.418     0.192
  11      -0.665    -0.906     1.571    -0.064     0.117    -0.442
  12      -0.943    -0.876     1.819    -0.064    -0.034    -0.084
  13      -0.710    -0.669     1.379    -0.106    -0.289    -0.026
  14      -0.829    -0.941     1.770    -0.017     0.042     0.020
  15      -0.592    -0.853     1.445    -0.063     0.034    -0.425
  16      -0.858    -0.901     1.759    -0.039     0.100     0.142
  17       1.432     1.535    -2.968     0.178     0.051    -0.091
  18       1.608     1.223    -2.831    -0.013     0.027    -0.038
  19       1.334     1.501    -2.835    -0.093    -0.047     0.105
  20       1.615     1.341    -2.956    -0.063     0.084    -0.077
  21       1.570     1.515    -3.085     0.156     0.156     0.010
  22       1.695     1.245    -2.940    -0.020     0.069     0.031
  23       1.219     1.596    -2.816    -0.101    -0.143    -0.077
  24       1.200     1.635    -2.835    -0.184    -0.011     0.063
  25      -1.067    -0.241     1.308     0.492    -0.234    -0.843
  26      -1.363     0.273     1.091    -0.819    -1.017     0.287
  27      -1.272     0.935     0.337     0.001     0.063     0.478
  28      -0.426    -0.339     0.765     0.837     0.791    -0.611
  29      -1.283    -2.699     3.982    -0.911     0.066     1.665
  30       0.464    -2.613     2.150     0.328     0.552    -0.564
  31      -0.603    -0.343     0.946    -0.588     0.300    -1.198
  32       1.407     0.238    -1.645     0.313     0.853     0.479
  33       2.392    -0.828    -1.564    -1.256     1.170     0.213
  34      -0.486    -0.531     1.017    -2.385    -0.355     1.027
  35       0.967    -1.195     0.228     0.171     0.004     0.460
  36       0.385    -0.208    -0.177    -0.197    -0.147    -0.391
  37       1.396    -0.221    -1.174     0.009     0.109     0.108
  38       0.988     0.568    -1.555     0.906    -0.730    -0.637
  39      -0.077     0.229    -0.152     0.216     0.555     0.490
  40      -0.883    -0.500     1.383     0.225     0.769    -1.052
  41      -2.650     2.672    -0.022    -4.430     1.151    -5.103
  42      -6.096     2.920     3.176     3.247     0.825     5.805
  43       8.460    -5.833    -2.627    -0.228    -2.854     0.489
  44      -2.934     2.887     0.048     6.292    -1.392    -2.237
  45      -2.726     5.040    -2.314    -3.396    -2.483     1.485
  46       3.699    -4.102     0.402    -0.147     4.582    -0.127
  47      -4.815     2.629     2.186    -4.241     1.394    -3.826
  48       5.793    -5.932     0.140     0.055    -5.029    -0.321
  49      -5.423     2.005     3.418     1.932     1.660     5.147
  50       5.394    -6.455     1.060    -1.189     4.073     0.734
  51      -3.309     2.328     0.981    -4.974    -2.377     4.217
  52      -1.538     0.267     1.271     6.509    -2.174    -5.095
  53      -2.433     0.049     2.384    -5.310     2.811    -2.996
  54      -2.909     1.669     1.240     3.179     2.984     3.808
  55       4.676    -4.818     0.142     1.210    -4.146    -0.656
  56      -4.436     3.491     0.945     5.934    -1.655    -3.929
  57      -3.048     2.724     0.324    -6.006    -3.013     3.292
  58       2.401    -4.897     2.496     1.828     5.131    -1.797
  59      -0.488    -1.021     1.509    -5.524     3.777    -4.676
  60       4.922    -6.670     1.749     0.015    -5.608    -0.915
[...]
  74       7.319    -8.495     1.176    -1.812     4.578     0.749
  75      -1.787     1.942    -0.155    -5.581    -1.974     3.776
  76      -1.842     2.744    -0.902     5.005    -3.075    -3.729
  77      -3.159     3.366    -0.207    -3.293     3.300    -3.050
  78      -3.153     3.730    -0.577     5.683     1.235     3.267
  79       4.550    -5.977     1.427     1.242    -5.039     1.134
  80      -3.723     5.075    -1.352     5.175    -1.020    -2.283
  81      -3.354     3.195     0.159    -4.538    -2.494     3.455
  82       5.170    -5.133    -0.038     0.525     5.770     0.028
  83      -1.966     1.983    -0.016    -5.162     0.581    -3.694
  84       7.677    -6.129    -1.548    -0.103    -3.976     0.008
  85      -4.187     2.468     1.719     4.486     2.202     4.506
  86       6.809    -6.453    -0.356    -0.145     4.099    -0.807
  87      -1.236    -0.049     1.285    -5.389    -1.781     5.370
  88      -1.767    -0.103     1.869     4.242    -2.399    -5.367

 Total hyperfine coupling parameters after diagonalization (MHz)
 (convention: |A_zz| > |A_xx| > |A_yy|)
  ion      A_xx      A_yy      A_zz     asymmetry (A_yy - A_xx)/ A_zz
   1       1.328     1.168     3.230      -0.050
   2       1.812     1.392     3.880      -0.108
   3       2.095     1.812     4.441      -0.064
   4       1.975     1.651     4.018      -0.080
   5      -0.734    -0.612     2.239       0.055
   6       2.408     1.995     4.825      -0.085
   7       2.244     1.816     4.580      -0.093
   8       2.136     1.731     4.605      -0.088
   9       2.914     2.401     5.177      -0.099
  10       1.955     1.636     4.089      -0.078
  11       2.173     1.851     4.493      -0.072
  12       0.498     0.353     3.159      -0.046
  13       1.000     0.768     3.012      -0.077
  14       0.501     0.383     3.098      -0.038
  15       1.398     1.043     3.503      -0.101
  16       1.191     1.092     3.797      -0.026
  17      13.964     9.693    14.333      -0.298
  18      13.005     8.950    13.391      -0.303
  19      13.309     9.180    13.563      -0.304
  20      14.346    10.060    14.650      -0.293
  21      15.408    10.932    15.726      -0.285
  22      14.604    10.418    15.056      -0.278
  23      13.117     9.095    13.539      -0.297
  24      12.763     8.794    13.332      -0.298
  25      97.032    96.158    99.205      -0.009
  26     100.235    98.039   101.673      -0.022
  27      94.280    92.930    95.406      -0.014
  28      98.464    96.387    99.210      -0.021
  29      98.549    95.998   103.840      -0.025
  30      98.471    95.371   100.454      -0.031
  31      96.073    95.316    98.386      -0.008
  32      91.627    89.505    93.192      -0.023
  33      95.254    94.000    99.218      -0.013
  34      99.334    95.950   101.429      -0.033
  35      97.396    95.693    98.019      -0.017
  36      99.271    98.433    99.522      -0.008
  37      93.086    92.104    94.696      -0.010
  38      93.078    91.407    95.202      -0.018
  39      95.850    95.241    96.823      -0.006
  40      97.536    96.520   100.008      -0.010
  41       4.014     0.665    14.741      -0.227
  42       7.566     2.405    19.073      -0.271
  43       5.990     3.331    18.399      -0.145
  44       7.728     1.619    16.379      -0.373
  45       7.462     3.781    15.957      -0.231
  46       5.083     3.796    14.825      -0.087
  47       7.490     1.592    15.940      -0.370
  48       5.878     2.705    17.398      -0.182
  49       4.029     0.554    14.843      -0.234
  50       7.419     1.752    16.391      -0.346
  51       4.931     0.903    15.502      -0.260
  52       6.906     1.062    18.114      -0.323
  53       6.352     0.558    14.744      -0.393
  54       2.770     0.332    12.287      -0.198
  55       7.437     4.777    17.042      -0.156
  56       9.115     2.781    19.334      -0.328
  57       5.552     0.473    16.197      -0.314
  58       6.283     0.699    14.861      -0.376
  59       4.288     0.799    16.548      -0.211
  60       4.668     0.230    16.225      -0.273
[...]
  74       9.337     1.425    20.150      -0.393
  75       2.689    -0.978    13.034      -0.281
  76       2.140     0.167    13.800      -0.143
  77       7.476     3.609    16.215      -0.239
  78       3.935    -0.607    14.085      -0.322
  79       4.328    -0.627    14.259      -0.348
  80       4.257     0.152    14.396      -0.285
  81       5.356     1.650    15.258      -0.243
  82       1.051    -0.428    13.679      -0.108
  83       6.494     1.587    14.789      -0.332
  84       4.845     1.739    17.023      -0.182
  85      -3.796     0.637    11.107       0.399
  86       6.470     2.012    17.268      -0.258
  87       7.102     1.877    17.430      -0.300
  88       3.562     0.322    14.581      -0.222

 stress matrix after NEB project (eV)
    -50.05011      2.44799      3.86091
      2.43931    -46.89769      3.44225
      3.81583      3.41008    -64.16634
  FORCES: max atom, RMS     2.769745    1.164863
  FORCE total and by dimension   10.927386    2.546839
  Stress total and by dimension   94.268839   64.166337

 total charge

[...]

 magnetization (x)

# of ion       s       p       d       tot
    1        0.002   0.001   0.000   0.002
    2        0.002   0.000   0.000   0.002
    3        0.002   0.000   0.000   0.002
    4        0.002   0.000   0.000   0.002
    5        0.000   0.000   0.000   0.000
    6        0.002   0.000   0.000   0.002
    7        0.002   0.000   0.000   0.002
    8        0.002   0.000   0.000   0.002
    9        0.003   0.001   0.000   0.003
   10        0.002   0.000   0.000   0.002
   11        0.002   0.000   0.000   0.002
   12        0.001   0.000   0.000   0.001
   13        0.001   0.000   0.000   0.002
   14        0.001   0.000   0.000   0.001
   15        0.001   0.000   0.000   0.001
   16        0.001   0.000   0.000   0.002
   17        0.007   0.002   0.001   0.010
   18        0.007   0.001   0.001   0.009
   19        0.007   0.001   0.001   0.009
   20        0.007   0.003   0.001   0.011
   21        0.008   0.003   0.001   0.012
   22        0.008   0.003   0.001   0.012
   23        0.007   0.003   0.001   0.010
   24        0.007   0.002   0.001   0.010
   25        0.016   0.030   2.743   2.789
   26        0.017   0.030   2.764   2.811
   27        0.015   0.031   2.740   2.786
   28        0.016   0.030   2.760   2.805
   29        0.016   0.030   2.768   2.814
   30        0.016   0.031   2.743   2.790
   31        0.016   0.030   2.751   2.797
   32        0.014   0.029   2.740   2.783
   33        0.015   0.030   2.756   2.802
   34        0.016   0.030   2.767   2.813
   35        0.015   0.029   2.780   2.824
   36        0.016   0.030   2.787   2.833
   37        0.014   0.029   2.720   2.763
   38        0.014   0.028   2.770   2.812
   39        0.015   0.030   2.754   2.799
   40        0.016   0.030   2.765   2.811
   41        0.002   0.028   0.000   0.030
   42        0.002   0.053   0.000   0.055
   43        0.003   0.036   0.000   0.039
   44        0.002   0.047   0.000   0.049
   45        0.002   0.035   0.000   0.037
   46        0.002   0.035   0.000   0.037
   47        0.002   0.044   0.000   0.046
   48        0.002   0.042   0.000   0.044
   49        0.002   0.029   0.000   0.031
   50        0.002   0.050   0.000   0.052
   51        0.002   0.033   0.000   0.035
   52        0.002   0.043   0.000   0.045
   53        0.002   0.031   0.000   0.033
   54        0.001   0.017   0.000   0.019
   55        0.002   0.054   0.000   0.057
   56        0.003   0.058   0.000   0.061
   57        0.002   0.029   0.000   0.031
   58        0.002   0.026   0.000   0.028
   59        0.002   0.028   0.000   0.030
   60        0.002   0.032   0.000   0.034
[...]
   74        0.003   0.054   0.000   0.057
   75        0.002   0.011   0.000   0.012
   76        0.002   0.005   0.000   0.007
   77        0.002   0.037   0.000   0.039
   78        0.002   0.017   0.000   0.019
   79        0.002   0.025   0.000   0.027
   80        0.002   0.026   0.000   0.028
   81        0.002   0.026   0.000   0.028
   82        0.002   0.006   0.000   0.008
   83        0.002   0.041   0.000   0.043
   84        0.002   0.026   0.000   0.028
   85        0.001  -0.008   0.000  -0.007
   86        0.002   0.039   0.000   0.041
   87        0.002   0.046   0.000   0.048
   88        0.002   0.021   0.000   0.023
tot          0.422   2.047  44.118  46.587