 vasp.5.4.4.18Apr17-6-g9f103f2a35 (build Dec 02 2020 12:53:39) complex

 executed on             LinuxIFC date 2021.08.04  23:45:07

 INCAR:
 POTCAR:    PAW_PBE Na_pv 19Sep2006
 POTCAR:    PAW_PBE Mg_pv 13Apr2007
 POTCAR:    PAW_PBE Mn_pv 02Aug2007
 POTCAR:    PAW_PBE O 08Apr2002

 POTCAR:    PAW_PBE Na_pv 19Sep2006
   VRHFIN =Na: p6s1

   TITEL  = PAW_PBE Na_pv 19Sep2006
   POMASS =   22.990; ZVAL   =    7.000    mass and valenz
   ENMAX  =  259.561; ENMIN  =  194.671 eV

 POTCAR:    PAW_PBE Mg_pv 13Apr2007
   VRHFIN =Mg: p6s2

   TITEL  = PAW_PBE Mg_pv 13Apr2007
   POMASS =   24.305; ZVAL   =    8.000    mass and valenz
   ENMAX  =  403.929; ENMIN  =  302.947 eV

 POTCAR:    PAW_PBE Mn_pv 02Aug2007
   VRHFIN =Mn: 3p4s3d

   TITEL  = PAW_PBE Mn_pv 02Aug2007
   POMASS =   54.938; ZVAL   =   13.000    mass and valenz
   ENMAX  =  269.864; ENMIN  =  202.398 eV

 POTCAR:    PAW_PBE O 08Apr2002
   VRHFIN =O: s2p4

   TITEL  = PAW_PBE O 08Apr2002
   POMASS =   16.000; ZVAL   =    6.000    mass and valenz
   ENMAX  =  400.000; ENMIN  =  300.000 eV

 Optimization of the real space projectors (new method)

 maximal supplied QI-value         = 17.01
 optimisation between [QCUT,QGAM] = [ 10.20, 20.41] = [ 29.16,116.64] Ry
 Optimized for a Real-space Cutoff    1.30 Angstroem

   l    n(q)    QCUT    max X(q) W(low)/X(q) W(high)/X(q)  e(spline)
   1      7    10.205     4.940    0.23E-03    0.84E-03    0.11E-06
   1      7    10.205     6.253    0.40E-03    0.13E-02    0.18E-06
   0      8    10.205    37.438    0.23E-03    0.37E-03    0.42E-07
   0      8    10.205     9.606    0.16E-03    0.26E-03    0.31E-07
 Optimization of the real space projectors (new method)

[...]

   l    n(q)    QCUT    max X(q) W(low)/X(q) W(high)/X(q)  e(spline)
   1      8    10.239     3.658    0.23E-03    0.30E-03    0.98E-07
   1      8    10.239     5.612    0.32E-03    0.65E-03    0.21E-06
   2      7    10.239    55.373    0.42E-03    0.45E-03    0.65E-07
   2      7    10.239    50.863    0.43E-03    0.48E-03    0.67E-07
   0      8    10.239    79.536    0.11E-03    0.21E-03    0.56E-07
   0      8    10.239    38.668    0.96E-04    0.19E-03    0.52E-07
 Optimization of the real space projectors (new method)

 maximal supplied QI-value         = 24.76
 optimisation between [QCUT,QGAM] = [ 10.15, 20.30] = [ 28.85,115.39] Ry
 Optimized for a Real-space Cutoff    1.38 Angstroem

   l    n(q)    QCUT    max X(q) W(low)/X(q) W(high)/X(q)  e(spline)
   0      8    10.150    20.381    0.22E-03    0.32E-03    0.29E-06
   0      8    10.150    15.268    0.23E-03    0.35E-03    0.30E-06
   1      8    10.150     5.964    0.46E-03    0.53E-03    0.21E-06
   1      8    10.150     5.382    0.38E-03    0.45E-03    0.19E-06
  PAW_PBE Na_pv 19Sep2006               :
  PAW_PBE Mg_pv 13Apr2007               :
  PAW_PBE Mn_pv 02Aug2007               :
  PAW_PBE O 08Apr2002                   :

 POSCAR: Na Mg Mn  O
  positions in cartesian coordinates

 METAGGA = SCAN     LMAXTAU =  6    LMIXTAU =  F

 VTST: version 3.2, (02/03/18)

 CHAIN: initializing optimizer

 OPT: Using VASP Dynamics algorithm
 CHAIN: Read ICHAIN            0

 POSCAR: Na Mg Mn  O
  positions in cartesian coordinates

 ion  position               nearest neighbor table
   1  0.068  0.446  0.253-  64 2.21  50 2.30  55 2.31  41 2.36
   2  0.676  0.006  0.760-  85 2.28  72 2.30  82 2.33  40 2.92
   3  0.953  0.487  0.745-  57 2.23  60 2.30  61 2.33  58 2.35
   4  0.042  0.220  0.743-  58 2.25  44 2.25  47 2.32  27 2.81  25 2.98
   5  0.707  0.185  0.250-  63 2.21  54 2.22
   6  0.458  0.687  0.257-  87 2.11  78 2.34  35 2.79  33 2.97
   7  0.327  0.701  0.754-  83 2.33  48 2.33  80 2.37
   8  0.837  0.755  0.742-  68 2.25  73 2.30  71 2.32  70 2.35
   9  0.522  0.381  0.248-  62 2.28  53 2.35  42 2.36
  10  0.823  0.880  0.254-  65 2.35  74 2.36  34 2.92
  11  0.335  0.969  0.254-  86 2.26  79 2.29  88 2.32  77 2.32  38 2.94
  12  0.186  0.902  0.759-
  13  0.487  0.515  0.737-  45 2.18  68 2.30  46 2.35
  14  0.530  0.240  0.749-  46 2.31  49 2.32  31 2.82  29 2.86
  15  0.993  0.705  0.257-  75 2.21  39 2.80  37 2.93
  16  0.151  0.199  0.247-  76 2.24  41 2.30  67 2.34
  17  0.673  0.544  0.999-  49 2.03  71 2.04  43 2.05  53 2.09  60 2.10  66 2.10
  18  0.338  0.363  0.484-  50 1.98  52 2.02  51 2.04  44 2.07  45 2.12  46 2.16  36 2.81
  19  0.178  0.550  0.994-  61 1.96  83 2.01  55 2.04  48 2.05  78 2.05  41 2.16  25 2.85
  20  0.845  0.370  0.501-  63 1.98  57 2.01  56 2.04  62 2.13  58 2.13  64 2.13  27 2.81  31 2.83

  21  0.172  0.049  0.988-  47 1.97  73 2.02  84 2.06  67 2.06  77 2.14  42 2.15  26 2.84
  22  0.848  0.864  0.503-  70 1.98  75 2.02  69 2.06  76 2.12  74 2.14  68 2.14  39 2.83
  23  0.683  0.048  0.009-  65 1.97  59 2.02  79 2.03  54 2.06  72 2.06  85 2.07  25 2.85  34 2.85

  24  0.341  0.871  0.503-  86 1.98  80 2.01  88 2.03  81 2.03  87 2.08  82 2.09
  25  0.011  0.223  0.007-  54 1.79  41 1.81  61 1.94  67 1.95  47 1.96  72 1.99  26 2.84  23 2.85
                            19 2.85  30 2.85   4 2.98  34 2.99
  26  0.338  0.376  0.996-  47 1.79  49 1.91  42 1.96  43 1.96  41 1.98  48 1.98  25 2.84  21 2.84
                            29 2.93  33 2.97
  27  0.007  0.209  0.494-  50 1.81  63 1.88  58 1.91  76 1.93  44 1.94  69 2.01  20 2.81   4 2.81
                            32 2.87  40 2.89  36 2.97
  28  0.676  0.532  0.497-  46 1.80  62 1.86  75 1.93  52 1.96  57 1.98  68 2.01  31 2.86  35 2.87
                            39 2.91
  29  0.512  0.213  0.003-  84 1.81  59 1.93  53 1.93  79 1.94  49 1.95  42 1.95  38 2.83  14 2.86
                            30 2.91  26 2.93
  30  0.848  0.388  0.004-  60 1.86  55 1.87  53 1.92  61 1.98  59 2.00  54 2.03  25 2.85  37 2.87
                            29 2.91
  31  0.518  0.203  0.499-  62 1.93  88 1.94  56 1.95  46 1.95  51 1.97  81 1.98  14 2.82  20 2.83
                            40 2.85  28 2.86  36 2.93
  32  0.181  0.538  0.507-  87 1.89  80 1.89  64 1.92  58 1.94  45 1.95  50 2.03  35 2.84  27 2.87
                            39 2.89
  33  0.511  0.718  0.996-  78 1.85  65 1.88  71 1.95  48 1.97  43 1.97  85 1.97  34 2.87  38 2.88
                            26 2.97   6 2.97
  34  0.841  0.878  0.994-  66 1.87  73 1.89  71 1.92  72 1.94  67 1.95  65 1.96  23 2.85  33 2.87
                            37 2.90  10 2.92  25 2.99
  35  0.508  0.695  0.503-  74 1.83  68 1.87  52 1.91  87 1.92  45 1.94  82 2.03   6 2.79  32 2.84
                            28 2.87  40 2.93
  36  0.180  0.039  0.495-  86 1.86  44 1.90  70 1.96  51 1.96  81 1.98  76 2.01  18 2.81  31 2.93
                            39 2.94  27 2.97
  37  0.016  0.718  0.997-  77 1.87  83 1.90  60 1.92  73 1.93  66 1.95  55 1.97  30 2.87  38 2.89
                            34 2.90  15 2.93
  38  0.349  0.887  0.004-  78 1.86  85 1.88  77 1.89  84 1.91  79 1.98  83 2.02  29 2.83  33 2.88
                            37 2.89  11 2.94
  39  0.011  0.701  0.506-  57 1.87  80 1.90  64 1.91  70 1.91  75 1.95  86 2.00  15 2.80  22 2.83
                            32 2.89  28 2.91  36 2.94
  40  0.675  0.032  0.501-  82 1.88  63 1.94  69 1.95  88 1.95  56 1.96  74 2.01  31 2.85  27 2.89
                             2 2.92  35 2.93
  41  0.169  0.364  0.097-  25 1.81  26 1.98  19 2.16  16 2.30   1 2.36
  42  0.353  0.224  0.095-  29 1.95  26 1.96  21 2.15   9 2.36
  43  0.496  0.546  0.091-  26 1.96  33 1.97  17 2.05
  44  0.163  0.191  0.585-  36 1.90  27 1.94  18 2.07   4 2.25
  45  0.346  0.535  0.598-  35 1.94  32 1.95  18 2.12  13 2.18
  46  0.529  0.378  0.584-  28 1.80  31 1.95  18 2.16  14 2.31  13 2.35
  47  0.179  0.230  0.912-  26 1.79  25 1.96  21 1.97   4 2.32
  48  0.352  0.549  0.900-  33 1.97  26 1.98  19 2.05   7 2.33
  49  0.497  0.368  0.909-  26 1.91  29 1.95  17 2.03  14 2.32
  50  0.159  0.361  0.406-  27 1.81  18 1.98  32 2.03   1 2.30
  51  0.352  0.190  0.398-  36 1.96  31 1.97  18 2.04
  52  0.517  0.544  0.404-  35 1.91  28 1.96  18 2.02
  53  0.678  0.369  0.097-  30 1.92  29 1.93  17 2.09   9 2.35
  54  0.865  0.224  0.099-  25 1.79  30 2.03  23 2.06   5 2.22
  55  0.005  0.547  0.092-  30 1.87  37 1.97  19 2.04   1 2.31
  56  0.674  0.195  0.598-  31 1.95  40 1.96  20 2.04
  57  0.849  0.545  0.593-  39 1.87  28 1.98  20 2.01   3 2.23
  58  0.025  0.367  0.599-  27 1.91  32 1.94  20 2.13   4 2.25   3 2.35
  59  0.678  0.216  0.913-  29 1.93  30 2.00  23 2.02
  60  0.858  0.546  0.911-  30 1.86  37 1.92  17 2.10   3 2.30
  61  0.009  0.380  0.908-  25 1.94  19 1.96  30 1.98   3 2.33
  62  0.666  0.374  0.403-  28 1.86  31 1.93  20 2.13   9 2.28
  63  0.840  0.198  0.411-  27 1.88  40 1.94  20 1.98   5 2.21
  64  0.032  0.556  0.410-  39 1.91  32 1.92  20 2.13   1 2.21
  65  0.672  0.868  0.089-  33 1.88  34 1.96  23 1.97  10 2.35
  66  0.857  0.731  0.086-  34 1.87  37 1.95  17 2.10
  67  0.998  0.045  0.090-  34 1.95  25 1.95  21 2.06  16 2.34
  68  0.656  0.686  0.599-  35 1.87  28 2.01  22 2.14   8 2.25  13 2.30
  69  0.843  0.040  0.594-  40 1.95  27 2.01  22 2.06
  70  0.022  0.872  0.591-  39 1.91  36 1.96  22 1.98   8 2.35
  71  0.677  0.719  0.903-  34 1.92  33 1.95  17 2.04   8 2.32
  72  0.856  0.052  0.906-  34 1.94  25 1.99  23 2.06   2 2.30
  73  0.996  0.869  0.903-  34 1.89  37 1.93  21 2.02   8 2.30
  74  0.654  0.850  0.411-  35 1.83  40 2.01  22 2.14  10 2.36
  75  0.846  0.692  0.408-  28 1.93  39 1.95  22 2.02  15 2.21
  76  0.015  0.051  0.401-  27 1.93  36 2.01  22 2.12  16 2.24
  77  0.177  0.869  0.088-  37 1.87  38 1.89  21 2.14  11 2.32
  78  0.359  0.729  0.081-  33 1.85  38 1.86  19 2.05   6 2.34
  79  0.511  0.053  0.101-  29 1.94  38 1.98  23 2.03  11 2.29
  80  0.171  0.695  0.594-  32 1.89  39 1.90  24 2.01   7 2.37
  81  0.346  0.047  0.596-  36 1.98  31 1.98  24 2.03
  82  0.524  0.876  0.596-  40 1.88  35 2.03  24 2.09   2 2.33
  83  0.177  0.723  0.904-  37 1.90  19 2.01  38 2.02   7 2.33
  84  0.365  0.057  0.916-  29 1.81  38 1.91  21 2.06
  85  0.502  0.884  0.909-  38 1.88  33 1.97  23 2.07   2 2.28
  86  0.175  0.876  0.412-  36 1.86  24 1.98  39 2.00  11 2.26
  87  0.342  0.689  0.413-  32 1.89  35 1.92  24 2.08   6 2.11
  88  0.515  0.038  0.406-  31 1.94  40 1.95  24 2.03  11 2.32

  LATTYP: Found a hexagonal cell.
 ALAT       =    10.0190000534
 C/A-ratio  =     1.1196726572

  Lattice vectors:

 A1 = (  10.0190000534,   0.0000000000,   0.0000000000)
 A2 = (  -5.0095000267,   8.6767085668,   0.0000000000)
 A3 = (   0.0000000000,   0.0000000000,  11.2180004120)

Analysis of symmetry for initial positions (statically):
 Subroutine PRICEL returns:
 Original cell was already a primitive cell.

 Routine SETGRP: Setting up the symmetry group for a
 hexagonal supercell.

 Subroutine GETGRP returns: Found  1 space group operations
 (whereof  1 operations were pure point group operations)
 out of a pool of 24 trial point group operations.

The static configuration has the point symmetry C_1 .

Analysis of symmetry for dynamics (positions and initial velocities):
 Subroutine PRICEL returns:
 Original cell was already a primitive cell.

[...]

The dynamic configuration has the point symmetry C_1 .

Analysis of structural, dynamic, and magnetic symmetry:
[...]
   4       0.014     0.015     1.337    -0.081     1.336
   5       0.001     0.001     2.052    -0.075     2.052
   6       0.015     0.015     1.503    -0.071     1.503
   7      -0.014    -0.013     2.076    -0.092     2.075
   8       0.001     0.001     2.221    -0.082     2.221
   9       0.002     0.003     2.804    -0.126     2.802
  10       0.018     0.019     1.692    -0.122     1.692
  11       0.004     0.004     1.878    -0.069     1.879
  12      -0.002    -0.002     2.619    -0.140     2.619
  13       0.007     0.006     3.027    -0.105     3.028
  14       0.006     0.008     1.008    -0.067     1.006
  15       0.012     0.013     1.166    -0.067     1.165
  16       0.005     0.006     3.276    -0.082     3.275
  17       0.061     0.065    13.215     0.134    13.211
  18       0.057     0.060    13.090     0.133    13.086
  19       0.054     0.056    13.161     0.143    13.159
  20       0.039     0.043    12.650     0.130    12.647
  21       0.071     0.075    14.509     0.139    14.505
  22       0.055     0.059    12.306     0.121    12.302
  23       0.065     0.066    12.796     0.148    12.796
  24       0.078     0.080    13.521     0.152    13.520
  25     158.795   158.770    91.795  -135.877    91.820
  26     160.667   160.654    95.392  -138.588    95.405
  27     160.000   159.981    92.843  -137.551    92.862
  28     160.501   160.486    98.104  -138.171    98.118
  29     160.390   160.372    96.542  -138.160    96.560
  30     162.004   161.987    98.199  -140.215    98.216
  31     162.672   162.653   101.442  -141.347   101.462
  32     161.396   161.374    97.907  -139.610    97.930
  33     161.672   161.655    97.959  -139.886    97.976
  34     160.605   160.586    95.023  -138.655    95.042
  35     159.840   159.825    94.232  -137.446    94.248
  36     162.129   162.110    95.572  -140.792    95.590
  37     161.217   161.203   100.477  -139.170   100.491
  38     160.695   160.677   100.231  -138.480   100.249
  39     160.779   160.756    97.481  -138.715    97.504
  40     162.692   162.672    97.672  -141.416    97.693
  41       2.917     2.921     8.074    -3.014     8.070
  42       1.072     1.075     6.034    -0.960     6.031
  43       1.292     1.296     5.865    -1.225     5.861
  44       2.287     2.294     8.314    -2.249     8.308
  45       2.927     2.929     9.091    -2.941     9.089
  46       3.132     3.136     8.530    -3.245     8.526
  47       4.122     4.125    10.318    -4.287    10.315
  48       1.633     1.635     6.650    -1.579     6.649
  49       1.479     1.482     4.624    -1.528     4.621
  50       2.243     2.250     6.873    -2.294     6.866
  51       1.141     1.143     5.954    -1.051     5.951
  52       1.172     1.176     5.583    -1.111     5.578
  53       2.626     2.626     8.437    -2.633     8.436
  54       3.218     3.225     8.570    -3.338     8.563
  55       2.072     2.074     7.301    -2.061     7.300
  56       1.795     1.800     7.811    -1.712     7.806
  57       2.236     2.238     7.674    -2.231     7.671
  58       2.991     2.994     9.314    -3.011     9.312
  59       1.640     1.645     6.651    -1.596     6.645
  60       2.941     2.946     9.059    -2.984     9.054
[...]
  74       2.061     2.066     6.414    -2.108     6.409
  75       2.291     2.290     7.311    -2.300     7.311
  76       0.821     0.826     3.931    -0.802     3.926
  77       3.945     3.949    10.426    -4.079    10.422
  78       3.356     3.363     8.352    -3.520     8.345
  79       1.005     1.006     5.578    -0.916     5.576
  80       2.367     2.373     6.960    -2.439     6.954
  81       0.849     0.850     5.763    -0.721     5.762
  82       1.745     1.749     6.471    -1.728     6.467
  83       1.517     1.519     6.629    -1.445     6.626
  84       3.803     3.809     9.636    -3.959     9.630
  85       2.023     2.028     7.396    -1.992     7.391
  86       2.143     2.146     6.833    -2.167     6.830
  87       2.831     2.835     8.335    -2.890     8.331
  88       1.992     1.997     7.948    -1.926     7.943

 Dipolar hyperfine coupling parameters (MHz)
  ion      A_xx      A_yy      A_zz      A_xy      A_xz      A_yz
   1      -0.866    -0.571     1.437    -0.097     0.374     0.212
   2      -0.703    -0.595     1.298     0.026     0.112    -0.120
   3      -0.841    -0.656     1.497    -0.078    -0.346    -0.185
   4      -0.970    -0.863     1.833     0.026     0.132     0.013
   5      -0.500    -0.846     1.345    -0.008     0.038    -0.477
   6      -0.922    -0.928     1.850     0.079     0.041    -0.133
   7      -0.612    -0.834     1.445    -0.005     0.070     0.561
   8      -0.516    -0.864     1.379    -0.080    -0.038     0.424
   9      -0.819    -0.798     1.618    -0.090     0.438     0.256
  10      -0.643    -0.615     1.258     0.063    -0.097     0.012
  11      -0.826    -0.596     1.421     0.120    -0.332     0.283
  12      -0.837    -0.650     1.487     0.114     0.388    -0.216
  13      -0.785    -0.735     1.520    -0.155    -0.414    -0.318
  14      -1.002    -0.927     1.928    -0.009    -0.054    -0.082
  15      -0.993    -0.883     1.876     0.078    -0.058    -0.025
  16      -0.726    -0.949     1.675    -0.059     0.033    -0.511
  17       1.454     1.457    -2.911    -0.052     0.048    -0.118
  18       1.546     1.336    -2.881     0.140     0.003     0.136
  19       1.355     1.602    -2.957     0.189    -0.043    -0.016
  20       1.348     1.551    -2.899    -0.111     0.021     0.159
  21       1.438     1.541    -2.979    -0.096     0.046    -0.081
  22       1.565     1.302    -2.866    -0.059     0.020    -0.011
  23       1.411     1.502    -2.913    -0.025     0.052     0.082
  24       1.447     1.520    -2.967     0.033     0.061    -0.071
  25      -0.294     0.089     0.204    -0.870     0.218    -0.553
  26      -0.697     0.259     0.438    -1.763    -0.766    -0.780
  27      -0.301    -0.178     0.479    -0.463     0.414     0.004
  28       0.507    -0.427    -0.080    -0.724     0.371     0.765
  29      -1.012     0.200     0.811    -0.109    -1.005    -0.820
  30       0.081    -0.941     0.859    -1.091     0.705     0.862
  31       1.944    -1.563    -0.381     0.281    -0.758     0.301
  32       0.383    -0.427     0.045     1.240     0.369     1.155
  33      -1.353    -0.501     1.854     0.370     0.665    -0.878
  34      -0.362    -0.672     1.034     0.361     0.508    -0.237
  35       0.743    -0.004    -0.739    -0.189    -0.607     1.613
  36      -0.767    -0.247     1.015     1.376     1.582     0.083
  37      -1.074     0.260     0.814     0.306    -0.699    -0.229
  38      -1.327    -0.514     1.840     0.498     0.569    -0.373
  39      -0.868    -1.089     1.957     0.161     0.256    -0.231
  40       0.549    -1.714     1.165    -0.984    -0.974     0.851
  41      -2.812     3.117    -0.305    -6.011     1.837    -4.705
  42      -2.809     3.213    -0.404     4.237     0.963     3.738
  43       5.684    -5.505    -0.180     1.082    -4.284     1.274
  44      -2.808     3.316    -0.507     6.276    -2.323    -4.649
  45      -5.350     3.242     2.108    -3.832    -2.982     5.156
  46       5.658    -6.482     0.824     0.366     6.295     1.519
  47      -3.394     1.311     2.082    -5.759     0.505    -5.298
  48       4.986    -6.027     1.041    -0.462    -4.187    -0.960
  49      -4.224     2.130     2.094     3.556     1.862     3.817
  50       4.081    -4.699     0.618    -2.655     4.457     0.063
  51      -2.776     2.510     0.266    -4.809    -1.513     3.568
  52      -2.603     2.384     0.219     4.334    -1.640    -3.672
  53      -3.172     2.570     0.601    -5.436     3.118    -3.102
  54      -4.490     2.892     1.598     3.343     3.644     2.825
  55       4.274    -5.178     0.904    -1.720    -5.431    -0.130
  56      -3.103     2.172     0.931     4.790    -3.267    -3.841
  57      -1.797     0.565     1.232    -5.582    -1.589     4.593
  58       6.221    -5.623    -0.598    -0.998     3.613    -0.980
  59      -3.009     0.630     2.379    -4.397     3.950    -4.766
  60       5.850    -6.567     0.716     0.086    -4.526     2.157
[...]
  74       5.528    -6.253     0.725     0.157     4.988     0.573
  75      -2.802     2.179     0.622    -4.268    -4.189     2.996
  76      -3.984     1.831     2.153     4.471    -2.751    -4.054
  77      -4.553     3.383     1.170    -5.223     0.848    -4.899
  78      -4.478     1.809     2.669     5.191     3.365     4.765
  79       4.435    -5.163     0.728    -0.737    -4.951    -0.418
  80      -4.058     1.593     2.465     4.609    -1.269    -4.587
  81      -3.976     3.932     0.044    -4.387    -2.303     3.780
  82       4.693    -5.164     0.471    -0.571     5.321     1.907
  83      -2.604     2.112     0.492    -3.958     2.952    -3.833
  84       4.682    -5.872     1.190    -0.780    -4.024    -0.019
  85      -2.014     1.829     0.185     5.382     3.942     3.997
  86       4.618    -5.829     1.211     0.600     5.086     0.067
  87      -4.429     3.221     1.209    -4.938    -0.741     5.680
  88      -1.802     0.908     0.893     4.645    -2.297    -4.568

 Total hyperfine coupling parameters after diagonalization (MHz)
 (convention: |A_zz| > |A_xx| > |A_yy|)
  ion      A_xx      A_yy      A_zz     asymmetry (A_yy - A_xx)/ A_zz
   1       2.290     1.867     4.350      -0.097
   2       0.855     0.729     2.760      -0.046
   3       1.839     1.536     4.028      -0.075
   4       0.478     0.355     3.175      -0.039
   5       1.552     1.107     3.498      -0.127
   6       0.656     0.493     3.361      -0.049
   7       1.462     1.109     3.652      -0.097
   8       1.716     1.268     3.679      -0.122
   9       2.081     1.807     4.519      -0.061
  10       1.126     0.995     2.954      -0.044
  11       1.328     0.927     3.381      -0.118
  12       2.023     1.648     4.186      -0.090
  13       2.425     2.004     4.655      -0.091
  14       0.078     0.002     2.937      -0.026
  15       0.322     0.130     3.042      -0.063
  16       2.557     2.222     5.047      -0.066
  17      14.614    10.296    14.722      -0.293
  18      14.356    10.201    14.703      -0.283
  19      14.412    10.202    14.864      -0.283
  20      13.947     9.742    14.251      -0.295
  21      15.886    11.524    16.105      -0.271
  22      13.591     9.435    13.880      -0.299
  23      14.201     9.880    14.305      -0.302
  24      14.955    10.551    15.053      -0.293
  25      91.703    90.797    92.959      -0.010
  26      96.222    92.953    97.040      -0.034
  27      92.948    92.074    93.565      -0.009
  28      98.591    96.740    99.023      -0.019
  29      96.512    94.987    98.182      -0.016
  30      98.963    96.162    99.524      -0.028
  31     100.979    99.765   103.640      -0.012
  32      97.761    96.239    99.789      -0.015
  33      97.504    96.227   100.197      -0.013
  34      94.861    94.016    96.248      -0.009
  35      94.706    92.175    95.862      -0.026
  36      95.733    93.233    97.806      -0.026
  37     100.670    99.156   101.648      -0.015
  38      99.968    98.557   102.222      -0.014
  39      96.716    96.296    99.500      -0.004
  40      97.564    95.537    99.977      -0.020
  41       5.398     1.335    17.477      -0.232
  42       3.978     0.822    13.293      -0.237
  43       4.125    -0.357    13.814      -0.324
  44       5.263     1.523    18.138      -0.206
  45       6.599     2.130    18.537      -0.241
  46       5.345     1.642    18.592      -0.199
  47       9.636     2.291    19.017      -0.386
  48       5.274     0.380    14.291      -0.342
  49       3.210    -1.198    11.851      -0.372
  50       5.125     1.088    14.386      -0.281
  51       4.207     0.273    13.374      -0.294
  52       3.544     0.422    12.769      -0.244
  53       6.831     1.790    16.687      -0.302
  54       7.983     1.946    15.762      -0.383
  55       4.670     1.527    15.702      -0.200
  56       5.541     1.719    16.159      -0.237
  57       6.256     0.909    15.849      -0.337
  58       7.224     3.494    17.217      -0.217
  59       3.512     0.607    15.817      -0.184
  60       7.805     1.748    17.610      -0.344
[...]
  74       4.042     0.102    15.084      -0.261
  75       5.687     1.105    15.140      -0.303
  76      -2.521     2.175    12.124       0.387
  77       8.913     2.987    19.365      -0.306
  78       6.191     0.894    17.950      -0.295
  79       3.088     0.186    13.455      -0.216
  80       5.712     0.140    15.010      -0.371
  81       3.522    -0.239    14.003      -0.269
  82       4.456     0.145    14.801      -0.291
  83       4.023     1.624    14.231      -0.169
  84       8.223     3.683    16.984      -0.267
  85       4.344     1.349    16.480      -0.182
  86       4.406     0.956    15.128      -0.228
  87       6.361     0.949    17.683      -0.306
  88       5.450     2.445    15.935      -0.189

 stress matrix after NEB project (eV)
    -44.71467      3.32783     -5.28411
      3.32448    -48.25679      1.08250
     -5.28797      1.07810    -56.97188
  FORCES: max atom, RMS     2.702636    1.105159
  FORCE total and by dimension   10.367309    2.309516
  Stress total and by dimension   87.488624   56.971880

 total charge

[...]

 magnetization (x)

# of ion       s       p       d       tot
    1        0.002   0.001   0.000   0.003
    2        0.001   0.001   0.000   0.002
    3        0.002   0.000   0.000   0.002
    4        0.001   0.001   0.000   0.002
    5        0.001   0.000   0.000   0.002
    6        0.001   0.001   0.000   0.002
    7        0.002  -0.000   0.000   0.001
    8        0.002   0.000   0.000   0.002
    9        0.002   0.000   0.000   0.002
   10        0.001   0.001   0.000   0.002
   11        0.001   0.000   0.000   0.002
   12        0.002   0.000   0.000   0.002
   13        0.002   0.000   0.000   0.002
   14        0.001   0.000   0.000   0.001
   15        0.001   0.001   0.000   0.001
   16        0.002   0.000   0.000   0.002
   17        0.008   0.002   0.001   0.011
   18        0.007   0.002   0.001   0.011
   19        0.007   0.002   0.001   0.010
   20        0.007   0.002   0.001   0.010
   21        0.008   0.003   0.001   0.012
   22        0.007   0.002   0.001   0.011
   23        0.007   0.002   0.001   0.010
   24        0.007   0.003   0.001   0.011
   25        0.014   0.029   2.708   2.751
   26        0.015   0.029   2.747   2.791
   27        0.014   0.030   2.733   2.778
   28        0.016   0.030   2.743   2.789
   29        0.015   0.030   2.742   2.788
   30        0.016   0.029   2.774   2.819
   31        0.016   0.030   2.791   2.838
   32        0.016   0.029   2.763   2.809
   33        0.016   0.030   2.769   2.814
   34        0.015   0.030   2.747   2.792
   35        0.015   0.030   2.731   2.775
   36        0.015   0.030   2.778   2.823
   37        0.016   0.031   2.759   2.806
   38        0.017   0.031   2.748   2.796
   39        0.015   0.031   2.751   2.797
   40        0.015   0.029   2.790   2.833
   41        0.002   0.046   0.000   0.047
   42        0.002   0.013   0.000   0.015
   43        0.002   0.018   0.000   0.019
   44        0.002   0.034   0.000   0.037
   45        0.002   0.046   0.000   0.048
   46        0.002   0.049   0.000   0.051
   47        0.002   0.066   0.000   0.069
   48        0.002   0.023   0.000   0.025
   49        0.001   0.022   0.000   0.023
   50        0.002   0.034   0.000   0.036
   51        0.002   0.014   0.000   0.016
   52        0.002   0.015   0.000   0.017
   53        0.002   0.040   0.000   0.043
   54        0.002   0.051   0.000   0.053
   55        0.002   0.031   0.000   0.033
   56        0.002   0.025   0.000   0.027
   57        0.002   0.033   0.000   0.035
   58        0.002   0.046   0.000   0.049
   59        0.002   0.023   0.000   0.025
   60        0.002   0.045   0.000   0.048
[...]
   74        0.002   0.031   0.000   0.033
   75        0.002   0.035   0.000   0.037
   76        0.001   0.010   0.000   0.011
   77        0.003   0.063   0.000   0.065
   78        0.002   0.053   0.000   0.055
   79        0.002   0.012   0.000   0.014
   80        0.002   0.036   0.000   0.038
   81        0.002   0.009   0.000   0.011
   82        0.002   0.025   0.000   0.027
   83        0.002   0.021   0.000   0.023
   84        0.002   0.061   0.000   0.063
   85        0.002   0.030   0.000   0.032
   86        0.002   0.033   0.000   0.034
   87        0.002   0.044   0.000   0.046
   88        0.002   0.029   0.000   0.031
tot          0.422   2.072  44.083  46.577