 vasp.5.4.4.18Apr17-6-g9f103f2a35 (build Dec 02 2020 12:53:39) complex

 executed on             LinuxIFC date 2021.08.05  04:56:33

 INCAR:
 POTCAR:    PAW_PBE Na_pv 19Sep2006
 POTCAR:    PAW_PBE Mg_pv 13Apr2007
 POTCAR:    PAW_PBE Mn_pv 02Aug2007
 POTCAR:    PAW_PBE O 08Apr2002

 POTCAR:    PAW_PBE Na_pv 19Sep2006
   VRHFIN =Na: p6s1

   TITEL  = PAW_PBE Na_pv 19Sep2006
   POMASS =   22.990; ZVAL   =    7.000    mass and valenz
   ENMAX  =  259.561; ENMIN  =  194.671 eV

 POTCAR:    PAW_PBE Mg_pv 13Apr2007
   VRHFIN =Mg: p6s2

   TITEL  = PAW_PBE Mg_pv 13Apr2007
   POMASS =   24.305; ZVAL   =    8.000    mass and valenz
   ENMAX  =  403.929; ENMIN  =  302.947 eV

 POTCAR:    PAW_PBE Mn_pv 02Aug2007
   VRHFIN =Mn: 3p4s3d

   TITEL  = PAW_PBE Mn_pv 02Aug2007
   POMASS =   54.938; ZVAL   =   13.000    mass and valenz
   ENMAX  =  269.864; ENMIN  =  202.398 eV

 POTCAR:    PAW_PBE O 08Apr2002
   VRHFIN =O: s2p4

   TITEL  = PAW_PBE O 08Apr2002
   POMASS =   16.000; ZVAL   =    6.000    mass and valenz
   ENMAX  =  400.000; ENMIN  =  300.000 eV

 Optimization of the real space projectors (new method)

 maximal supplied QI-value         = 17.01
 optimisation between [QCUT,QGAM] = [ 10.20, 20.41] = [ 29.16,116.64] Ry
 Optimized for a Real-space Cutoff    1.30 Angstroem

   l    n(q)    QCUT    max X(q) W(low)/X(q) W(high)/X(q)  e(spline)
   1      7    10.205     4.940    0.23E-03    0.84E-03    0.11E-06
   1      7    10.205     6.253    0.40E-03    0.13E-02    0.18E-06
   0      8    10.205    37.438    0.23E-03    0.37E-03    0.42E-07
   0      8    10.205     9.606    0.16E-03    0.26E-03    0.31E-07
 Optimization of the real space projectors (new method)

[...]

   l    n(q)    QCUT    max X(q) W(low)/X(q) W(high)/X(q)  e(spline)
   1      8    10.239     3.658    0.23E-03    0.30E-03    0.98E-07
   1      8    10.239     5.612    0.32E-03    0.65E-03    0.21E-06
   2      7    10.239    55.373    0.42E-03    0.45E-03    0.65E-07
   2      7    10.239    50.863    0.43E-03    0.48E-03    0.67E-07
   0      8    10.239    79.536    0.11E-03    0.21E-03    0.56E-07
   0      8    10.239    38.668    0.96E-04    0.19E-03    0.52E-07
 Optimization of the real space projectors (new method)

 maximal supplied QI-value         = 24.76
 optimisation between [QCUT,QGAM] = [ 10.15, 20.30] = [ 28.85,115.39] Ry
 Optimized for a Real-space Cutoff    1.38 Angstroem

   l    n(q)    QCUT    max X(q) W(low)/X(q) W(high)/X(q)  e(spline)
   0      8    10.150    20.381    0.22E-03    0.32E-03    0.29E-06
   0      8    10.150    15.268    0.23E-03    0.35E-03    0.30E-06
   1      8    10.150     5.964    0.46E-03    0.53E-03    0.21E-06
   1      8    10.150     5.382    0.38E-03    0.45E-03    0.19E-06
  PAW_PBE Na_pv 19Sep2006               :
  PAW_PBE Mg_pv 13Apr2007               :
  PAW_PBE Mn_pv 02Aug2007               :
  PAW_PBE O 08Apr2002                   :

 POSCAR: Na Mg Mn  O
  positions in cartesian coordinates

 METAGGA = SCAN     LMAXTAU =  6    LMIXTAU =  F

 VTST: version 3.2, (02/03/18)

 CHAIN: initializing optimizer

 OPT: Using VASP Dynamics algorithm
 CHAIN: Read ICHAIN            0

 POSCAR: Na Mg Mn  O
  positions in cartesian coordinates

 ion  position               nearest neighbor table
   1  0.614  0.852  0.250-  88 2.25  79 2.31  78 2.37
   2  0.324  0.833  0.751-  83 2.35
   3  0.153  0.501  0.756-  60 2.32  80 2.37
   4  0.963  0.719  0.758-  71 2.16  34 2.93
   5  0.320  0.145  0.234-  67 2.27  42 2.31
   6  0.970  0.991  0.250-  65 2.30  63 2.34
   7  0.735  0.011  0.765-  59 2.16  85 2.19  56 2.31
   8  0.814  0.343  0.752-  57 2.30
   9  0.083  0.331  0.252-  54 2.24  63 2.29  64 2.33  30 2.94
  10  0.191  0.702  0.252-  86 2.09  77 2.15  37 2.78  39 2.86
  11  0.821  0.632  0.248-  52 2.27  75 2.30  66 2.37
  12  0.623  0.657  0.747-  48 2.19  68 2.32  85 2.36  45 2.36  35 2.82  33 2.84
  13  0.108  0.146  0.747-  72 2.28  69 2.31  27 2.82  25 2.88
  14  0.446  0.207  0.754-  47 2.05  44 2.28
  15  0.483  0.496  0.249-  87 2.35  41 2.37
  16  0.664  0.189  0.254-  62 2.27  42 2.33  88 2.37  31 2.80  29 2.89
  17  0.819  0.498  0.002-  49 1.97  43 2.02  53 2.04  60 2.05  71 2.07  66 2.17  26 2.81
  18  0.467  0.328  0.496-  45 2.04  46 2.04  51 2.10  44 2.11  50 2.14  52 2.16  31 2.79  32 2.82

  19  0.322  0.499  0.001-  61 1.98  78 2.02  55 2.03  41 2.03  83 2.06  48 2.16  25 2.83
  20  0.964  0.323  0.493-  62 2.00  63 2.01  56 2.09  58 2.10  64 2.11  57 2.22  40 2.77
  21  0.325  0.992  0.998-  73 1.92  84 2.03  77 2.10  67 2.14  42 2.17  47 2.18  38 2.80  37 2.83
                            29 2.85
  22  0.963  0.826  0.496-  74 1.97  76 2.01  75 2.04  68 2.10  69 2.13  70 2.15  35 2.81
  23  0.822  0.990  0.994-  72 1.97  85 2.03  79 2.05  65 2.05  59 2.10  54 2.11  33 2.79  34 2.85

  24  0.474  0.838  0.490-  86 1.99  88 1.99  82 2.05  87 2.11  80 2.15  81 2.16  40 2.80
  25  0.164  0.174  1.000-  47 1.88  72 1.91  61 1.92  41 1.93  67 1.96  54 2.00  19 2.83  26 2.87
                            13 2.88  30 2.90  34 2.96
  26  0.494  0.336  0.002-  49 1.87  43 1.89  47 1.94  41 1.95  42 1.95  48 2.00  17 2.81  25 2.87
                            33 2.89  29 2.90
  27  0.134  0.158  0.496-  69 1.83  76 1.86  44 1.91  58 1.94  50 2.00  63 2.07  13 2.82  36 2.85
                            40 2.94  32 2.94
  28  0.798  0.492  0.507-  62 1.87  52 1.91  46 1.94  75 1.95  68 1.99  57 2.02  31 2.81  35 2.86
                            39 2.98
  29  0.653  0.161  0.997-  79 1.85  84 1.86  53 1.91  42 1.93  49 1.93  59 1.96  21 2.85  38 2.85
                            16 2.89  30 2.89  26 2.90
  30  0.986  0.330  0.005-  53 1.82  59 1.90  54 1.92  55 1.92  60 1.97  61 1.97  29 2.89  25 2.90
                            37 2.92   9 2.94
  31  0.629  0.169  0.502-  62 1.84  51 1.87  56 1.90  46 1.92  81 1.93  88 2.01  18 2.79  16 2.80
                            28 2.81  36 2.88  40 2.89
  32  0.310  0.497  0.496-  45 1.86  58 1.89  50 1.90  80 1.94  64 1.96  87 1.98  18 2.82  35 2.86
                            39 2.91  27 2.94
  33  0.651  0.669  0.999-  43 1.83  48 1.87  78 1.90  71 1.91  85 1.99  65 2.00  23 2.79  38 2.84
                            12 2.84  26 2.89  34 2.96
  34  0.993  0.832  0.002-  66 1.90  67 1.90  71 1.91  72 1.93  73 1.98  65 2.00  23 2.85  37 2.89
                             4 2.93  33 2.96  25 2.96
  35  0.639  0.663  0.496-  68 1.86  74 1.87  45 1.88  87 1.89  52 1.92  82 1.96  22 2.81  12 2.82
                            32 2.86  28 2.86  40 2.96
  36  0.298  0.993  0.500-  70 1.88  51 1.89  81 1.92  76 1.93  86 1.94  44 1.95  27 2.85  39 2.86
                            31 2.88
  37  0.159  0.666  0.006-  55 1.82  66 1.92  83 1.94  77 1.98  73 2.00  60 2.02  10 2.78  21 2.83
                            38 2.86  34 2.89  30 2.92
  38  0.488  0.833  0.003-  84 1.87  77 1.87  79 1.90  83 1.90  78 1.91  85 1.94  21 2.80  33 2.84
                            29 2.85  37 2.86
  39  0.141  0.663  0.504-  80 1.88  64 1.93  86 1.95  75 1.97  57 1.98  70 2.00  10 2.86  36 2.86
                            32 2.91  28 2.98
  40  0.796  0.004  0.493-  88 1.86  63 1.88  69 1.91  82 1.94  56 1.99  74 2.02  20 2.77  24 2.80
                            31 2.89  27 2.94  35 2.96
  41  0.327  0.329  0.095-  25 1.93  26 1.95  19 2.03  15 2.37
  42  0.507  0.181  0.098-  29 1.93  26 1.95  21 2.17   5 2.31  16 2.33
  43  0.646  0.511  0.084-  33 1.83  26 1.89  17 2.02
  44  0.285  0.149  0.594-  27 1.91  36 1.95  18 2.11  14 2.28
  45  0.473  0.510  0.584-  32 1.86  35 1.88  18 2.04  12 2.36
  46  0.635  0.330  0.600-  31 1.92  28 1.94  18 2.04
  47  0.324  0.184  0.906-  25 1.88  26 1.94  14 2.05  21 2.18
  48  0.510  0.508  0.901-  33 1.87  26 2.00  19 2.16  12 2.19
  49  0.649  0.327  0.914-  26 1.87  29 1.93  17 1.97
  50  0.288  0.334  0.396-  32 1.90  27 2.00  18 2.14
  51  0.463  0.142  0.408-  31 1.87  36 1.89  18 2.10
  52  0.658  0.513  0.403-  28 1.91  35 1.92  18 2.16  11 2.27
  53  0.822  0.319  0.085-  30 1.82  29 1.91  17 2.04
  54  0.994  0.172  0.095-  30 1.92  25 2.00  23 2.11   9 2.24
  55  0.146  0.503  0.088-  37 1.82  30 1.92  19 2.03
  56  0.782  0.158  0.596-  31 1.90  40 1.99  20 2.09   7 2.31
  57  0.973  0.508  0.606-  39 1.98  28 2.02  20 2.22   8 2.30
  58  0.153  0.333  0.584-  32 1.89  27 1.94  20 2.10
  59  0.828  0.178  0.907-  30 1.90  29 1.96  23 2.10   7 2.16
  60  0.992  0.496  0.907-  30 1.97  37 2.02  17 2.05   3 2.32
  61  0.152  0.331  0.910-  25 1.92  30 1.97  19 1.98
  62  0.786  0.328  0.418-  31 1.84  28 1.87  20 2.00  16 2.27
  63  0.956  0.150  0.396-  40 1.88  20 2.01  27 2.07   9 2.29   6 2.34
  64  0.150  0.510  0.406-  39 1.93  32 1.96  20 2.11   9 2.33
  65  0.823  0.825  0.101-  34 2.00  33 2.00  23 2.05   6 2.30
  66  0.008  0.684  0.098-  34 1.90  37 1.92  17 2.17  11 2.37
  67  0.143  1.000  0.094-  34 1.90  25 1.96  21 2.14   5 2.27
  68  0.782  0.655  0.598-  35 1.86  28 1.99  22 2.10  12 2.32
  69  0.966  0.018  0.581-  27 1.83  40 1.91  22 2.13  13 2.31
  70  0.150  0.837  0.597-  36 1.88  39 2.00  22 2.15
  71  0.821  0.680  0.913-  33 1.91  34 1.91  17 2.07   4 2.16
  72  0.004  0.004  0.915-  25 1.91  34 1.93  23 1.97  13 2.28
  73  0.159  0.832  0.908-  21 1.92  34 1.98  37 2.00
  74  0.793  0.825  0.407-  35 1.87  22 1.97  40 2.02
  75  0.967  0.648  0.411-  28 1.95  39 1.97  22 2.04  11 2.30
  76  0.138  0.001  0.409-  27 1.86  36 1.93  22 2.01
  77  0.333  0.822  0.102-  38 1.87  37 1.98  21 2.10  10 2.15
  78  0.495  0.674  0.092-  33 1.90  38 1.91  19 2.02   1 2.37
  79  0.651  0.003  0.084-  29 1.85  38 1.90  23 2.05   1 2.31
  80  0.295  0.651  0.590-  39 1.88  32 1.94  24 2.15   3 2.37
  81  0.464  0.012  0.596-  36 1.92  31 1.93  24 2.16
  82  0.645  0.833  0.587-  40 1.94  35 1.96  24 2.05
  83  0.326  0.680  0.909-  38 1.90  37 1.94  19 2.06   2 2.35
  84  0.503  0.995  0.911-  29 1.86  38 1.87  21 2.03
  85  0.641  0.828  0.900-  38 1.94  33 1.99  23 2.03   7 2.19  12 2.36
  86  0.294  0.829  0.406-  36 1.94  39 1.95  24 1.99  10 2.09
  87  0.482  0.656  0.400-  35 1.89  32 1.98  24 2.11  15 2.35
  88  0.646  0.012  0.402-  40 1.86  24 1.99  31 2.01   1 2.25  16 2.37

  LATTYP: Found a hexagonal cell.
 ALAT       =    10.0190000534
 C/A-ratio  =     1.1196726572

  Lattice vectors:

 A1 = (  10.0190000534,   0.0000000000,   0.0000000000)
 A2 = (  -5.0095000267,   8.6767085668,   0.0000000000)
 A3 = (   0.0000000000,   0.0000000000,  11.2180004120)

Analysis of symmetry for initial positions (statically):
 Subroutine PRICEL returns:
 Original cell was already a primitive cell.

 Routine SETGRP: Setting up the symmetry group for a
 hexagonal supercell.

 Subroutine GETGRP returns: Found  1 space group operations
 (whereof  1 operations were pure point group operations)
 out of a pool of 24 trial point group operations.

The static configuration has the point symmetry C_1 .

Analysis of symmetry for dynamics (positions and initial velocities):
 Subroutine PRICEL returns:
 Original cell was already a primitive cell.

[...]

The dynamic configuration has the point symmetry C_1 .

Analysis of structural, dynamic, and magnetic symmetry:
 Subroutine PRICEL returns:
[...]
   4      -0.005    -0.005     1.495    -0.078     1.495
   5      -0.013    -0.013     2.093    -0.082     2.093
   6       0.004     0.005     2.620    -0.104     2.619
   7       0.007     0.007     1.870    -0.064     1.870
   8      -0.013    -0.011     2.336    -0.106     2.335
   9      -0.004    -0.004     1.707    -0.057     1.707
  10       0.010     0.009     0.933    -0.034     0.934
  11       0.024     0.024     3.449    -0.145     3.449
  12       0.004     0.004     0.950    -0.049     0.949
  13       0.011     0.010     1.114    -0.070     1.115
  14       0.000     0.001     1.957    -0.083     1.957
  15       0.004     0.005     3.300    -0.147     3.299
  16       0.017     0.018     1.407    -0.091     1.407
  17       0.078     0.079    14.844     0.149    14.843
  18       0.015     0.019    12.060     0.117    12.056
  19       0.058     0.060    13.585     0.148    13.583
  20       0.052     0.055    12.476     0.108    12.473
  21       0.025     0.029    12.283     0.110    12.279
  22       0.060     0.063    13.704     0.135    13.701
  23       0.067     0.070    12.112     0.132    12.109
  24       0.046     0.048    12.525     0.124    12.523
  25     161.507   161.486    96.485  -139.811    96.507
  26     161.691   161.675   100.955  -139.790   100.971
  27     160.123   160.110    96.496  -137.801    96.509
  28     162.374   162.357    98.008  -140.849    98.025
  29     160.031   160.012   101.396  -137.498   101.415
  30     160.364   160.347    95.474  -138.205    95.492
  31     159.446   159.421    97.090  -136.904    97.114
  32     160.831   160.815    95.571  -138.778    95.586
  33     159.826   159.798    94.167  -137.504    94.195
  34     161.747   161.728    94.691  -140.243    94.710
  35     159.160   159.144    92.737  -136.457    92.754
  36     160.690   160.669    95.660  -138.558    95.682
  37     161.615   161.598    99.165  -139.777    99.182
  38     159.173   159.154    96.370  -136.446    96.389
  39     162.508   162.493    96.000  -141.214    96.015
  40     161.189   161.175    95.093  -139.277    95.107
  41       2.562     2.560     8.591    -2.541     8.593
  42       2.020     2.025     7.629    -1.983     7.624
  43       2.479     2.484     6.320    -2.608     6.315
  44       1.685     1.690     6.179    -1.679     6.173
  45       3.669     3.672    10.027    -3.775    10.025
  46       2.283     2.285     8.699    -2.226     8.698
  47       2.971     2.976     9.126    -3.009     9.121
  48       1.584     1.585     7.414    -1.492     7.412
  49       2.870     2.875     8.495    -2.923     8.489
  50       2.240     2.241     9.059    -2.141     9.057
  51       3.659     3.662     9.571    -3.781     9.568
  52       1.817     1.821     6.677    -1.801     6.673
  53       3.158     3.165     8.272    -3.289     8.265
  54       1.707     1.710     6.520    -1.674     6.516
  55       3.696     3.702     8.853    -3.894     8.847
  56       1.693     1.697     6.815    -1.640     6.811
  57       1.383     1.387     6.431    -1.309     6.427
  58       2.282     2.280     6.802    -2.332     6.804
  59       1.398     1.402     5.945    -1.346     5.941
  60       0.384     0.384     4.518    -0.239     4.518
[...]
  74       1.169     1.174     4.861    -1.153     4.857
  75       1.320     1.322     5.593    -1.283     5.590
  76       3.272     3.277     9.334    -3.344     9.329
  77       2.304     2.310     8.225    -2.290     8.219
  78       3.034     3.040     8.771    -3.092     8.765
  79       3.011     3.012     8.137    -3.109     8.136
  80       2.629     2.634     7.700    -2.694     7.695
  81       2.253     2.254     7.674    -2.239     7.674
  82       1.419     1.425     5.495    -1.407     5.490
  83       2.238     2.241     8.141    -2.195     8.138
  84       3.607     3.613    10.238    -3.689    10.231
  85       2.154     2.156     6.845    -2.159     6.844
  86       1.476     1.480     6.480    -1.414     6.476
  87       2.201     2.204     6.660    -2.238     6.658
  88       2.364     2.369     7.521    -2.386     7.516

 Dipolar hyperfine coupling parameters (MHz)
  ion      A_xx      A_yy      A_zz      A_xy      A_xz      A_yz
   1      -0.824    -0.617     1.442    -0.170     0.460     0.224
   2      -0.828    -0.735     1.564     0.074     0.505    -0.215
   3      -0.899    -0.717     1.616    -0.104    -0.366    -0.250
   4      -0.544    -0.809     1.353     0.010    -0.072     0.443
   5      -0.644    -0.807     1.451    -0.006     0.072    -0.478
   6      -0.713    -0.712     1.425     0.073    -0.417     0.271
   7      -0.654    -0.701     1.355    -0.093    -0.263    -0.097
   8      -0.744    -0.755     1.499     0.079     0.458    -0.272
   9      -0.694    -0.722     1.415    -0.129     0.392     0.118
  10      -0.966    -0.950     1.916    -0.055    -0.116     0.113
  11      -0.595    -0.866     1.461     0.009    -0.038    -0.435
  12      -0.915    -0.975     1.890    -0.084     0.019     0.098
  13      -0.920    -0.922     1.842    -0.024     0.064     0.058
  14      -0.529    -0.818     1.346    -0.039    -0.115     0.464
  15      -0.879    -0.734     1.612     0.046    -0.442     0.191
  16      -0.956    -0.936     1.892    -0.055    -0.083     0.003
  17       1.478     1.515    -2.993    -0.018     0.107     0.046
  18       1.356     1.490    -2.846    -0.152     0.087     0.079
  19       1.370     1.594    -2.964     0.052     0.006     0.068
  20       1.659     1.202    -2.861     0.179    -0.050     0.071
  21       1.508     1.339    -2.847     0.070     0.005    -0.029
  22       1.421     1.543    -2.964     0.166     0.030    -0.078
  23       1.599     1.327    -2.926     0.027    -0.037     0.043
  24       1.556     1.320    -2.876     0.057    -0.080     0.011
  25       0.116    -1.594     1.477    -1.056     0.615     0.352
  26      -0.290    -0.037     0.327    -0.602     0.747    -0.616
  27      -0.203    -0.522     0.726    -0.918     0.373    -0.280
  28       0.835     0.210    -1.045     0.328     0.136     0.104
  29       0.243    -2.442     2.199     0.532     0.992    -0.281
  30      -1.962    -0.345     2.307    -0.650    -0.482     0.772
  31      -0.470     0.833    -0.363    -2.214     0.057    -0.883
  32      -0.489     0.119     0.369    -1.545    -0.563    -1.014
  33       0.281    -0.029    -0.252     1.011     0.044    -0.442
  34      -0.231    -0.741     0.972    -0.618    -0.614     0.316
  35       0.168     0.296    -0.464    -0.238    -0.952     0.910
  36      -0.066     1.002    -0.936    -0.903     0.658    -0.108
  37       0.132    -0.749     0.617     0.422     0.538     1.114
  38       1.666    -1.062    -0.604    -0.945     0.809     1.071
  39      -1.079     0.994     0.085     0.621     0.637     0.657
  40      -1.253     0.918     0.335    -0.185     0.137     1.416
  41      -2.628     2.816    -0.188    -4.133     1.703    -4.037
  42      -1.514     1.858    -0.344     5.982     2.655     3.503
  43       4.697    -6.486     1.789     1.394    -4.336    -0.110
  44      -3.960     3.122     0.838     4.041    -3.981    -4.299
  45      -4.361     3.355     1.006    -6.079    -3.454     4.302
  46       5.045    -5.785     0.739    -0.017     5.386    -1.010
  47      -4.695     5.046    -0.351    -4.584     2.242    -3.904
  48       8.088    -7.007    -1.082     0.417    -6.044    -1.254
  49      -3.603     1.006     2.598     4.380     4.107     3.635
  50       6.890    -4.998    -1.892     1.287     2.182    -1.248
  51      -2.042     2.298    -0.256    -6.686    -2.944     2.301
  52      -2.144     3.164    -1.020     5.523    -2.700    -2.225
  53      -5.570     2.709     2.861    -4.048     3.000    -4.409
  54      -3.542     1.674     1.868     4.626     2.021     4.793
  55       3.813    -7.579     3.766     0.567    -5.118     1.932
  56      -2.281     2.791    -0.510     5.062    -1.093    -3.410
  57      -3.445     3.559    -0.114    -5.116    -1.823     3.427
  58       4.909    -6.656     1.747    -1.365     5.605     0.336
  59      -2.764     3.199    -0.435    -4.127     1.280    -3.702
  60       4.241    -4.133    -0.108    -0.501    -4.279    -0.199
[...]
  74       3.395    -5.159     1.764     1.701     4.249     0.856
  75      -2.095     1.462     0.634    -5.592    -1.929     4.994
  76      -2.856     1.658     1.198     4.958    -0.245    -4.123
  77      -2.860     1.948     0.912    -5.769     2.782    -4.721
  78      -3.100     2.447     0.653     5.124     3.236     2.864
  79       3.986    -5.965     1.979    -0.235    -5.577     1.467
  80      -5.059     4.048     1.010     5.272    -3.852    -3.084
  81      -2.250     3.283    -1.033    -5.994    -3.720     3.979
  82       5.070    -6.243     1.173     0.373     4.017     0.840
  83      -2.060     2.994    -0.934    -4.981     2.591    -2.655
  84       6.134    -6.186     0.052    -0.278    -4.539    -0.143
  85      -2.293     1.868     0.425     3.738     1.920     3.506
  86       5.359    -6.177     0.818     0.544     5.091     0.791
  87      -3.505     2.661     0.844    -4.151    -2.345     4.146
  88      -3.396     3.143     0.253     3.799    -3.263    -2.158

 Total hyperfine coupling parameters after diagonalization (MHz)
 (convention: |A_zz| > |A_xx| > |A_yy|)
  ion      A_xx      A_yy      A_zz     asymmetry (A_yy - A_xx)/ A_zz
   1       1.655     1.151     3.724      -0.135
   2       2.223     1.932     4.601      -0.063
   3       2.123     1.775     4.484      -0.078
   4       0.951     0.597     2.938      -0.120
   5       1.447     1.189     3.643      -0.071
   6       1.976     1.729     4.150      -0.060
   7       1.278     1.069     3.262      -0.064
   8       1.658     1.396     3.950      -0.066
   9       1.111     0.813     3.196      -0.093
  10      -0.079     0.022     2.859       0.035
  11       2.853     2.504     4.989      -0.070
  12       0.093    -0.088     2.843      -0.064
  13       0.219     0.167     2.960      -0.017
  14       1.421     1.044     3.406      -0.111
  15       2.578     2.319     5.001      -0.052
  16       0.516     0.403     3.301      -0.034
  17      16.317    11.847    16.365      -0.273
  18      13.316     9.206    13.645      -0.301
  19      14.941    10.619    15.190      -0.285
  20      13.615     9.610    14.194      -0.282
  21      13.593     9.432    13.813      -0.301
  22      15.007    10.735    15.361      -0.278
  23      13.434     9.182    13.711      -0.310
  24      13.830     9.645    14.093      -0.297
  25      96.983    94.315    98.222      -0.027
  26     100.476   100.118   102.320      -0.003
  27      96.685    95.215    97.629      -0.015
  28      98.096    96.965    99.014      -0.011
  29     101.391    98.823   104.029      -0.025
  30      95.087    93.291    98.097      -0.018
  31      96.699    94.856    99.787      -0.018
  32      96.209    93.369    97.182      -0.029
  33      94.065    93.129    95.390      -0.010
  34      94.498    93.552    96.081      -0.010
  35      92.750    91.357    94.154      -0.015
  36      95.439    94.334    97.272      -0.011
  37      99.003    97.801   100.743      -0.012
  38      96.650    94.072    98.444      -0.026
  39      95.813    94.609    97.623      -0.012
  40      94.382    93.759    97.181      -0.006
  41       5.992     3.677    16.109      -0.144
  42       5.110     1.581    16.182      -0.218
  43       5.081    -0.369    14.231      -0.383
  44       3.798    -0.352    15.074      -0.275
  45       7.862     2.188    20.024      -0.283
  46       6.008     2.671    17.414      -0.192
  47       6.727     2.522    18.115      -0.232
  48       3.600     0.087    18.549      -0.189
  49       6.676     1.835    16.956      -0.286
  50       7.329     3.307    16.536      -0.243
  51       8.026     2.487    18.190      -0.305
  52       4.704     0.755    14.561      -0.271
  53       6.729     0.889    17.177      -0.340
  54       4.396     0.192    14.958      -0.281
  55       7.978     0.751    17.812      -0.406
  56       4.955     1.220    14.257      -0.262
  57       4.477     0.284    14.519      -0.289
  58       4.573    -0.167    16.005      -0.296
  59       3.643     0.970    13.209      -0.202
  60       1.906     0.253    11.394      -0.145
[...]
  74       3.156    -0.628    12.042      -0.314
  75       3.308    -0.982    14.444      -0.297
  76       8.838     2.673    16.476      -0.374
  77       5.597     1.495    17.565      -0.234
  78       7.337     2.309    16.649      -0.302
  79       5.711     1.825    16.871      -0.230
  80       6.809    -0.410    16.684      -0.433
  81       4.276     1.285    17.460      -0.171
  82       4.199    -0.848    13.118      -0.385
  83       5.867     2.812    15.734      -0.194
  84       7.878     4.026    18.790      -0.205
  85       4.703     2.348    13.480      -0.175
  86       4.027     0.211    15.192      -0.251
  87       4.323     1.053    14.598      -0.224
  88       6.777     1.555    14.215      -0.367

 stress matrix after NEB project (eV)
    -44.38006      2.94695      3.72829
      2.95047    -43.57968     -2.44698
      3.71923     -2.44973    -57.33455
  FORCES: max atom, RMS     2.002648    1.091340
  FORCE total and by dimension   10.237680    1.739198
  Stress total and by dimension   84.930208   57.334548

 total charge

[...]

 magnetization (x)

# of ion       s       p       d       tot
    1        0.002   0.000   0.000   0.002
    2        0.002   0.000   0.000   0.003
    3        0.002   0.000   0.000   0.002
    4        0.001   0.000   0.000   0.001
    5        0.002  -0.000   0.000   0.001
    6        0.002   0.000   0.000   0.002
    7        0.001   0.000   0.000   0.002
    8        0.002  -0.000   0.000   0.002
    9        0.001   0.000   0.000   0.001
   10        0.001   0.000   0.000   0.001
   11        0.002   0.001   0.000   0.003
   12        0.001   0.000   0.000   0.001
   13        0.001   0.000   0.000   0.001
   14        0.001   0.000   0.000   0.002
   15        0.002   0.000   0.000   0.003
   16        0.001   0.001   0.000   0.002
   17        0.008   0.003   0.001   0.012
   18        0.007   0.001   0.001   0.009
   19        0.007   0.002   0.001   0.011
   20        0.007   0.002   0.001   0.011
   21        0.007   0.002   0.001   0.010
   22        0.008   0.003   0.001   0.011
   23        0.007   0.003   0.001   0.011
   24        0.007   0.002   0.001   0.010
   25        0.015   0.029   2.765   2.809
   26        0.017   0.031   2.768   2.816
   27        0.015   0.029   2.738   2.782
   28        0.016   0.029   2.782   2.827
   29        0.017   0.032   2.734   2.784
   30        0.015   0.030   2.741   2.787
   31        0.015   0.031   2.724   2.770
   32        0.015   0.030   2.749   2.794
   33        0.015   0.030   2.733   2.778
   34        0.015   0.030   2.770   2.815
   35        0.015   0.031   2.717   2.763
   36        0.015   0.030   2.747   2.792
   37        0.016   0.029   2.769   2.814
   38        0.016   0.031   2.717   2.763
   39        0.015   0.029   2.786   2.830
   40        0.015   0.030   2.758   2.803
   41        0.002   0.039   0.000   0.041
   42        0.002   0.030   0.000   0.032
   43        0.002   0.039   0.000   0.040
   44        0.002   0.024   0.000   0.026
   45        0.003   0.058   0.000   0.061
   46        0.002   0.033   0.000   0.036
   47        0.002   0.046   0.000   0.048
   48        0.002   0.021   0.000   0.023
   49        0.002   0.045   0.000   0.047
   50        0.002   0.033   0.000   0.035
   51        0.002   0.059   0.000   0.061
   52        0.002   0.026   0.000   0.028
   53        0.002   0.050   0.000   0.052
   54        0.002   0.025   0.000   0.027
   55        0.002   0.059   0.000   0.061
   56        0.002   0.024   0.000   0.026
   57        0.002   0.019   0.000   0.021
   58        0.002   0.035   0.000   0.037
   59        0.002   0.019   0.000   0.021
   60        0.001   0.002   0.000   0.003
[...]
   74        0.001   0.016   0.000   0.017
   75        0.002   0.018   0.000   0.020
   76        0.002   0.052   0.000   0.054
   77        0.002   0.034   0.000   0.036
   78        0.002   0.048   0.000   0.050
   79        0.002   0.047   0.000   0.049
   80        0.002   0.041   0.000   0.043
   81        0.002   0.034   0.000   0.036
   82        0.002   0.020   0.000   0.022
   83        0.002   0.034   0.000   0.036
   84        0.003   0.057   0.000   0.060
   85        0.002   0.033   0.000   0.035
   86        0.002   0.020   0.000   0.022
   87        0.002   0.034   0.000   0.036
   88        0.002   0.036   0.000   0.038
tot          0.421   2.135  44.008  46.565