 vasp.5.4.4.18Apr17-6-g9f103f2a35 (build Dec 02 2020 12:53:39) complex

 executed on             LinuxIFC date 2021.08.02  20:49:42

 INCAR:
 POTCAR:    PAW_PBE Na_pv 19Sep2006
 POTCAR:    PAW_PBE Mg_pv 13Apr2007
 POTCAR:    PAW_PBE Mn_pv 02Aug2007
 POTCAR:    PAW_PBE O 08Apr2002

 POTCAR:    PAW_PBE Na_pv 19Sep2006
   VRHFIN =Na: p6s1

   TITEL  = PAW_PBE Na_pv 19Sep2006
   POMASS =   22.990; ZVAL   =    7.000    mass and valenz
   ENMAX  =  259.561; ENMIN  =  194.671 eV

 POTCAR:    PAW_PBE Mg_pv 13Apr2007
   VRHFIN =Mg: p6s2

   TITEL  = PAW_PBE Mg_pv 13Apr2007
   POMASS =   24.305; ZVAL   =    8.000    mass and valenz
   ENMAX  =  403.929; ENMIN  =  302.947 eV

 POTCAR:    PAW_PBE Mn_pv 02Aug2007
   VRHFIN =Mn: 3p4s3d

   TITEL  = PAW_PBE Mn_pv 02Aug2007
   POMASS =   54.938; ZVAL   =   13.000    mass and valenz
   ENMAX  =  269.864; ENMIN  =  202.398 eV

 POTCAR:    PAW_PBE O 08Apr2002
   VRHFIN =O: s2p4

   TITEL  = PAW_PBE O 08Apr2002
   POMASS =   16.000; ZVAL   =    6.000    mass and valenz
   ENMAX  =  400.000; ENMIN  =  300.000 eV

 Optimization of the real space projectors (new method)

 maximal supplied QI-value         = 17.01
 optimisation between [QCUT,QGAM] = [ 10.20, 20.41] = [ 29.16,116.64] Ry
 Optimized for a Real-space Cutoff    1.30 Angstroem

   l    n(q)    QCUT    max X(q) W(low)/X(q) W(high)/X(q)  e(spline)
   1      7    10.205     4.940    0.23E-03    0.84E-03    0.11E-06
   1      7    10.205     6.253    0.40E-03    0.13E-02    0.18E-06
   0      8    10.205    37.438    0.23E-03    0.37E-03    0.42E-07
   0      8    10.205     9.606    0.16E-03    0.26E-03    0.31E-07
 Optimization of the real space projectors (new method)

[...]

   l    n(q)    QCUT    max X(q) W(low)/X(q) W(high)/X(q)  e(spline)
   1      8    10.239     3.658    0.23E-03    0.30E-03    0.98E-07
   1      8    10.239     5.612    0.32E-03    0.65E-03    0.21E-06
   2      7    10.239    55.373    0.42E-03    0.45E-03    0.65E-07
   2      7    10.239    50.863    0.43E-03    0.48E-03    0.67E-07
   0      8    10.239    79.536    0.11E-03    0.21E-03    0.56E-07
   0      8    10.239    38.668    0.96E-04    0.19E-03    0.52E-07
 Optimization of the real space projectors (new method)

 maximal supplied QI-value         = 24.76
 optimisation between [QCUT,QGAM] = [ 10.15, 20.30] = [ 28.85,115.39] Ry
 Optimized for a Real-space Cutoff    1.38 Angstroem

   l    n(q)    QCUT    max X(q) W(low)/X(q) W(high)/X(q)  e(spline)
   0      8    10.150    20.381    0.22E-03    0.32E-03    0.29E-06
   0      8    10.150    15.268    0.23E-03    0.35E-03    0.30E-06
   1      8    10.150     5.964    0.46E-03    0.53E-03    0.21E-06
   1      8    10.150     5.382    0.38E-03    0.45E-03    0.19E-06
  PAW_PBE Na_pv 19Sep2006               :
  PAW_PBE Mg_pv 13Apr2007               :
  PAW_PBE Mn_pv 02Aug2007               :
  PAW_PBE O 08Apr2002                   :

 POSCAR: Na Mg Mn  O
  positions in cartesian coordinates

 METAGGA = SCAN     LMAXTAU =  6    LMIXTAU =  F

 VTST: version 3.2, (02/03/18)

 CHAIN: initializing optimizer

 OPT: Using VASP Dynamics algorithm
 CHAIN: Read ICHAIN            0

 POSCAR: Na Mg Mn  O
  positions in cartesian coordinates

 ion  position               nearest neighbor table
   1  0.927  0.238  0.254-  54 2.22  63 2.28  62 2.34
   2  0.550  0.205  0.749-  49 2.28  46 2.35
   3  0.712  0.690  0.750-  71 2.20  68 2.32  35 2.91  33 2.93
   4  0.186  0.549  0.754-  80 2.29  60 2.31  57 2.32  14 2.74
   5  0.928  0.759  0.253-  66 2.20  74 2.23
   6  0.204  0.668  0.257-  64 2.25  55 2.28  86 2.38  39 2.86  37 2.91
   7  0.974  0.180  0.747-  59 2.22  56 2.22
   8  0.353  0.371  0.756-  58 2.25  47 2.30  61 2.35  48 2.37
   9  0.181  0.163  0.247-  67 2.31  76 2.32  63 2.33  27 2.85  25 2.93
  10  0.466  0.014  0.252-  51 2.32  86 2.37  77 2.38  36 2.98
  11  0.478  0.511  0.245-  87 2.25  50 2.30  78 2.32  41 2.37
  12  0.184  0.011  0.754-  73 2.32  72 2.32  69 2.38
  13  0.503  0.848  0.752-  80 2.27  83 2.33  38 2.79
  14  0.001  0.678  0.749-  68 2.24   4 2.74
  15  0.692  0.358  0.256-
  16  0.682  0.858  0.252-  87 2.34  88 2.35
  17  0.849  0.524  0.997-  49 1.98  60 1.99  71 2.00  53 2.06  66 2.07  43 2.16  37 2.79  34 2.82

  18  0.532  0.363  0.511-  46 1.97  45 1.99  50 2.04  44 2.05  51 2.12  52 2.24  35 2.83  32 2.83

[...]

  24  0.527  0.846  0.495-  86 1.99  88 2.01  81 2.02  87 2.07  80 2.08  82 2.14  35 2.84  36 2.85

  25  0.175  0.183  0.987-  67 1.89  72 1.93  54 1.95  47 1.97  41 1.98  61 2.02  30 2.84  34 2.90
                             9 2.93  26 2.95
  26  0.514  0.356  0.002-  41 1.91  49 1.93  42 1.93  47 1.97  43 1.98  48 1.99  33 2.88  29 2.92
                            25 2.95
  27  0.199  0.181  0.500-  69 1.85  44 1.86  76 1.90  63 1.95  50 1.99  58 2.00   9 2.85  36 2.90
                            32 2.92  40 2.96
  28  0.867  0.525  0.503-  68 1.84  75 1.87  57 1.92  46 1.94  52 1.95  62 2.00  22 2.76  39 2.87
                            35 2.90  31 2.93
  29  0.681  0.185  0.998-  42 1.88  79 1.90  84 1.92  53 1.92  59 1.94  49 1.94  23 2.82  30 2.87
                            38 2.91  26 2.92
  30  0.012  0.347  0.999-  54 1.88  53 1.91  59 1.91  61 1.93  55 1.94  60 2.02  23 2.80  25 2.84
                            29 2.87  37 2.90
  31  0.692  0.188  0.496-  51 1.84  56 1.90  46 1.91  81 1.92  88 1.94  62 1.97  20 2.84  36 2.85
                            28 2.93  40 2.94
  32  0.360  0.517  0.498-  64 1.86  58 1.89  50 1.90  45 1.93  87 2.03  80 2.06  18 2.83  39 2.88
                            35 2.91  27 2.92
  33  0.675  0.688  0.009-  78 1.84  85 1.89  65 1.91  48 1.93  43 1.94  71 1.94  34 2.86  38 2.88
                            26 2.88   3 2.93
  34  0.004  0.849  0.995-  71 1.87  65 1.90  67 1.93  66 1.99  73 2.01  72 2.06  17 2.82  33 2.86
                            37 2.90  25 2.90
  35  0.695  0.687  0.491-  87 1.83  45 1.86  52 1.87  74 1.94  82 1.97  68 2.06  18 2.83  24 2.84
                            40 2.84  22 2.84  28 2.90  32 2.91   3 2.91
  36  0.363  0.011  0.502-  70 1.88  81 1.88  86 1.91  51 1.92  76 1.94  44 2.00  39 2.83  24 2.85
                            31 2.85  27 2.90  10 2.98
  37  0.170  0.681  0.001-  60 1.88  83 1.91  66 1.92  55 1.92  77 1.94  73 1.97  17 2.79  19 2.84
                            34 2.90  30 2.90  38 2.91   6 2.91
  38  0.505  0.850  1.000-  83 1.80  77 1.91  84 1.93  85 1.97  78 2.00  79 2.02  13 2.79  19 2.79
                            21 2.83  33 2.88  37 2.91  29 2.91
  39  0.197  0.685  0.512-  57 1.89  86 1.90  70 1.92  75 1.93  80 1.94  64 1.97  36 2.83   6 2.86
                            28 2.87  32 2.88
  40  0.858  0.015  0.501-  56 1.87  82 1.87  74 1.93  63 1.97  88 2.02  69 2.04  35 2.84  31 2.94
                            27 2.96
  41  0.342  0.342  0.086-  26 1.91  25 1.98  19 2.11  11 2.37
  42  0.532  0.201  0.091-  29 1.88  26 1.93  21 2.14
  43  0.669  0.522  0.103-  33 1.94  26 1.98  17 2.16
  44  0.351  0.177  0.592-  27 1.86  36 2.00  18 2.05
  45  0.538  0.544  0.588-  35 1.86  32 1.93  18 1.99
  46  0.703  0.353  0.588-  31 1.91  28 1.94  18 1.97   2 2.35
  47  0.352  0.203  0.896-  25 1.97  26 1.97  21 2.18   8 2.30
  48  0.530  0.529  0.904-  33 1.93  26 1.99  19 2.13   8 2.37
  49  0.676  0.351  0.911-  26 1.93  29 1.94  17 1.98   2 2.28
  50  0.362  0.357  0.408-  32 1.90  27 1.99  18 2.04  11 2.30
  51  0.527  0.178  0.415-  31 1.84  36 1.92  18 2.12  10 2.32
  52  0.722  0.546  0.400-  35 1.87  28 1.95  18 2.24
  53  0.848  0.344  0.088-  30 1.91  29 1.92  17 2.06
  54  0.029  0.200  0.091-  30 1.88  25 1.95  23 2.04   1 2.22
  55  0.164  0.517  0.094-  37 1.92  30 1.94  19 2.06   6 2.28
  56  0.846  0.172  0.583-  40 1.87  31 1.90  20 1.95   7 2.22
  57  0.029  0.523  0.593-  39 1.89  28 1.92  20 2.00   4 2.32
  58  0.212  0.356  0.595-  32 1.89  27 2.00  20 2.14   8 2.25
  59  0.848  0.194  0.904-  30 1.91  29 1.94  23 2.03   7 2.22
  60  0.020  0.524  0.906-  37 1.88  17 1.99  30 2.02   4 2.31
  61  0.163  0.349  0.892-  30 1.93  25 2.02  19 2.16   8 2.35
  62  0.862  0.356  0.406-  20 1.97  31 1.97  28 2.00   1 2.34
  63  0.031  0.166  0.404-  27 1.95  40 1.97  20 2.17   1 2.28   9 2.33
  64  0.208  0.529  0.413-  32 1.86  39 1.97  20 2.12   6 2.25
  65  0.847  0.854  0.088-  34 1.90  33 1.91  23 1.96
  66  0.021  0.697  0.099-  37 1.92  34 1.99  17 2.07   5 2.20
  67  0.166  0.022  0.080-  25 1.89  34 1.93  21 2.04   9 2.31
  68  0.855  0.672  0.595-  28 1.84  22 1.95  35 2.06  14 2.24   3 2.32
  69  0.041  0.039  0.596-  27 1.85  40 2.04  22 2.11  12 2.38
  70  0.209  0.857  0.597-  36 1.88  39 1.92  22 2.07
  71  0.837  0.692  0.912-  34 1.87  33 1.94  17 2.00   3 2.20
  72  0.016  0.023  0.890-  25 1.93  34 2.06  23 2.15  12 2.32
  73  0.171  0.842  0.900-  37 1.97  34 2.01  21 2.05  12 2.32
  74  0.863  0.857  0.406-  40 1.93  35 1.94  22 2.02   5 2.23
  75  0.033  0.675  0.415-  28 1.87  39 1.93  22 2.04
  76  0.217  0.035  0.404-  27 1.90  36 1.94   9 2.32
  77  0.340  0.842  0.091-  38 1.91  37 1.94  21 1.99  10 2.38
  78  0.521  0.691  0.097-  33 1.84  38 2.00  19 2.03  11 2.32
  79  0.669  0.025  0.097-  29 1.90  38 2.02  23 2.05
  80  0.359  0.682  0.606-  39 1.94  32 2.06  24 2.08  13 2.27   4 2.29
  81  0.531  0.023  0.586-  36 1.88  31 1.92  24 2.02
  82  0.712  0.853  0.596-  40 1.87  35 1.97  24 2.14
  83  0.346  0.711  0.911-  38 1.80  37 1.91  19 2.06  13 2.33
  84  0.517  0.020  0.911-  29 1.92  38 1.93  21 1.97
  85  0.662  0.831  0.907-  33 1.89  38 1.97  23 2.18
  86  0.349  0.841  0.413-  39 1.90  36 1.91  24 1.99  10 2.37   6 2.38
  87  0.538  0.676  0.399-  35 1.83  32 2.03  24 2.07  11 2.25  16 2.34
  88  0.693  0.025  0.403-  31 1.94  24 2.01  40 2.02  16 2.35

  LATTYP: Found a hexagonal cell.
 ALAT       =    10.0190000534
 C/A-ratio  =     1.1196726572

  Lattice vectors:

 A1 = (  10.0190000534,   0.0000000000,   0.0000000000)
 A2 = (  -5.0095000267,   8.6767085668,   0.0000000000)
 A3 = (   0.0000000000,   0.0000000000,  11.2180004120)

Analysis of symmetry for initial positions (statically):
 Subroutine PRICEL returns:
 Original cell was already a primitive cell.

 Routine SETGRP: Setting up the symmetry group for a
 hexagonal supercell.

 Subroutine GETGRP returns: Found  1 space group operations
 (whereof  1 operations were pure point group operations)
 out of a pool of 24 trial point group operations.

The static configuration has the point symmetry C_1 .

Analysis of symmetry for dynamics (positions and initial velocities):
 Subroutine PRICEL returns:
 Original cell was already a primitive cell.

[...]

The dynamic configuration has the point symmetry C_1 .

Analysis of structural, dynamic, and magnetic symmetry:
 Subroutine PRICEL returns:
 Original cell was already a primitive cell.

 Routine SETGRP: Setting up the symmetry group for a
 hexagonal supercell.

 Subroutine GETGRP returns: Found  1 space group operations
 (whereof  1 operations were pure point group operations)
 out of a pool of 24 trial point group operations.

The magnetic configuration has the point symmetry C_1 .

 Subroutine INISYM returns: Found  1 space group operations
[...]
   4       0.002     0.002     2.798    -0.066     2.798
   5       0.003     0.003     2.181    -0.094     2.181
   6       0.006     0.008     1.089    -0.060     1.088
   7       0.009     0.009     2.507    -0.091     2.507
   8      -0.006    -0.006     2.651    -0.061     2.651
   9       0.004     0.007     1.161    -0.078     1.159
  10       0.001     0.002     2.320    -0.132     2.319
  11       0.015     0.014     3.217    -0.095     3.218
  12      -0.005    -0.005     2.838    -0.099     2.838
  13       0.011     0.011     1.049    -0.068     1.049
  14      -0.003    -0.003     3.004    -0.112     3.004
  15       0.003     0.004     2.915    -0.175     2.913
  16      -0.013    -0.013     2.304    -0.104     2.304
  17       0.057     0.058    12.492     0.135    12.490
  18       0.064     0.067    13.579     0.140    13.577
  19       0.031     0.036    12.087     0.116    12.082
  20       0.076     0.080    13.437     0.134    13.434
  21       0.063     0.066    13.265     0.131    13.261
  22       0.043     0.047    13.151     0.132    13.148
  23       0.040     0.043    11.943     0.128    11.941
  24       0.044     0.046    12.225     0.132    12.223
  25     162.450   162.439    96.083  -141.120    96.094
  26     163.204   163.186    97.336  -142.105    97.354
  27     160.153   160.125    94.489  -137.988    94.517
  28     160.494   160.481    94.138  -138.313    94.150
  29     161.322   161.304    96.445  -139.439    96.463
  30     160.667   160.645    94.562  -138.712    94.584
  31     161.252   161.234    96.965  -139.222    96.983
  32     161.186   161.165    95.716  -139.340    95.737
  33     159.568   159.546    93.477  -137.057    93.499
  34     163.196   163.181    99.084  -141.914    99.099
  35     158.779   158.759    93.343  -136.014    93.363
  36     160.748   160.729   100.246  -138.624   100.265
  37     160.242   160.215    95.298  -138.163    95.325
  38     160.852   160.825    99.771  -138.825    99.797
  39     161.043   161.030    98.520  -138.965    98.533
  40     162.117   162.098    96.756  -140.581    96.774
  41       1.976     1.981     7.134    -1.963     7.129
  42       1.712     1.718     5.788    -1.736     5.782
  43       2.074     2.076     7.348    -2.062     7.345
  44       1.727     1.733     5.279    -1.780     5.273
  45       2.997     3.000    10.163    -2.966    10.160
  46       2.700     2.705     8.236    -2.742     8.231
  47       1.495     1.499     6.538    -1.439     6.533
  48       1.068     1.069     6.420    -0.925     6.419
  49       1.639     1.644     6.945    -1.576     6.940
  50       1.812     1.816     6.918    -1.782     6.914
  51       2.858     2.863     7.716    -2.965     7.711
  52       2.906     2.911     8.883    -2.948     8.878
  53       1.780     1.784     5.984    -1.800     5.980
  54       2.156     2.163     7.460    -2.163     7.453
  55       2.523     2.525     8.336    -2.522     8.334
  56       3.123     3.127     8.006    -3.254     8.002
  57       2.648     2.648     7.531    -2.717     7.530
  58       1.527     1.526     6.228    -1.482     6.229
  59       2.904     2.905     9.382    -2.904     9.382
  60       2.046     2.049     6.896    -2.046     6.894
[...]
  74       2.584     2.585     8.206    -2.584     8.205
  75       2.186     2.191     7.650    -2.178     7.644
  76       2.501     2.507     9.341    -2.444     9.335
  77       1.798     1.800     6.465    -1.781     6.463
  78       2.670     2.676     8.436    -2.698     8.430
  79       1.909     1.909     7.152    -1.861     7.152
  80       1.685     1.692     6.862    -1.632     6.854
  81       2.576     2.578     8.404    -2.588     8.402
  82       3.465     3.465    11.087    -3.463    11.087
  83       3.272     3.277     8.480    -3.418     8.476
  84       2.013     2.017     7.255    -2.002     7.250
  85       2.299     2.304     7.670    -2.300     7.665
  86       2.239     2.240     7.702    -2.230     7.701
  87       2.494     2.499     7.326    -2.570     7.321
  88       0.421     0.424     4.589    -0.287     4.586

 Dipolar hyperfine coupling parameters (MHz)
  ion      A_xx      A_yy      A_zz      A_xy      A_xz      A_yz
   1      -0.547    -0.777     1.324     0.048    -0.001    -0.390
   2      -0.722    -0.859     1.581    -0.025    -0.057     0.428
   3      -0.875    -0.917     1.792     0.035     0.040     0.050
   4      -0.853    -0.768     1.621    -0.084    -0.349    -0.294
   5      -0.559    -0.846     1.405     0.053    -0.024    -0.409
   6      -0.874    -0.951     1.825     0.034     0.070     0.020
   7      -0.522    -0.880     1.402    -0.020     0.089     0.535
   8      -0.897    -0.706     1.603     0.045     0.345    -0.315
   9      -0.950    -0.855     1.806     0.113     0.067     0.023
  10      -0.831    -0.693     1.524     0.148    -0.393     0.222
  11      -0.859    -0.718     1.577     0.164    -0.433     0.174
  12      -0.816    -0.690     1.506    -0.135    -0.565    -0.174
  13      -0.678    -0.705     1.383     0.022     0.045    -0.017
  14      -0.657    -0.913     1.569    -0.015    -0.025     0.501
  15      -0.834    -0.667     1.501    -0.123     0.397     0.227
  16      -0.810    -0.697     1.507    -0.102     0.432     0.227
  17       1.403     1.554    -2.957     0.016    -0.026    -0.003
  18       1.567     1.387    -2.955    -0.251     0.064     0.016
  19       1.445     1.377    -2.822     0.004     0.104     0.067
  20       1.368     1.606    -2.974     0.250    -0.008     0.021
  21       1.679     1.220    -2.899    -0.049     0.008    -0.033
  22       1.431     1.453    -2.884    -0.043     0.205     0.031
  23       1.259     1.641    -2.900    -0.156    -0.060    -0.192
  24       1.590     1.299    -2.889    -0.050    -0.124     0.067
  25       0.554     0.367    -0.921    -0.078     0.560     0.399
  26      -1.246     1.090     0.156     0.686    -0.403    -0.366
  27      -1.323     2.462    -1.139    -0.888     1.343    -0.051
  28      -0.498     0.263     0.235     0.494     1.335     0.271
  29      -0.635    -1.019     1.655    -0.171     0.705     0.035
  30      -0.081     0.713    -0.632     0.738    -0.482    -0.347
  31      -2.290    -1.485     3.775    -0.353    -0.418    -0.452
  32      -1.504     1.630    -0.127     0.220    -0.338     0.634
  33      -0.483     0.773    -0.290     0.013     0.404    -0.378
  34      -0.901     0.119     0.782    -1.524    -0.869    -0.676
  35      -0.827     2.210    -1.383    -1.018     1.138    -0.896
  36      -0.478    -1.184     1.662     0.353    -0.563     0.802
  37       0.661    -0.170    -0.490    -1.128     0.630    -0.397
  38      -1.137    -0.023     1.160    -0.542    -1.136    -0.127
  39      -0.066    -0.946     1.012    -0.846    -0.188     0.550
  40      -0.095    -0.861     0.956     0.439     1.318     0.595
  41      -3.508     2.276     1.232    -4.590     2.550    -4.835
  42      -3.248     2.668     0.580     5.619     2.511     4.308
  43       4.784    -6.538     1.754     0.137    -4.048    -1.379
  44      -3.534     2.408     1.126     3.616    -2.633    -3.271
  45      -1.078     2.924    -1.846    -5.509    -0.529     3.539
  46       4.290    -6.792     2.501     0.544     5.249    -1.849
  47      -3.316     3.173     0.144    -5.164     2.002    -3.223
  48       6.481    -4.209    -2.271     1.296    -3.257    -0.409
  49      -3.249     1.383     1.866     5.203     4.110     4.354
  50       3.177    -5.561     2.385     3.538     5.261    -1.930
  51      -3.225     0.298     2.927    -4.745    -4.232     3.728
  52      -4.155     4.593    -0.439     5.930    -2.190    -2.988
  53      -5.124     2.524     2.600    -3.541     2.013    -5.603
  54      -1.491     2.507    -1.015     6.327     1.482     3.070
  55       5.174    -6.396     1.222     2.155    -5.569     0.677
  56      -2.013    -1.146     3.159     5.834    -2.198    -4.444
  57      -3.696    -0.066     3.763    -4.375    -2.259     4.150
  58       5.295    -5.395     0.100    -1.030     3.731     3.373
  59      -3.758     3.034     0.724    -5.818     1.621    -5.448
  60       5.427    -5.513     0.086    -0.902    -4.784    -2.423
[...]
  74       3.684    -5.519     1.835    -1.269     5.374    -1.455
  75      -3.304     3.356    -0.052    -4.833    -2.193     4.758
  76      -1.965     4.218    -2.253     7.264    -1.061    -4.371
  77      -2.961     2.137     0.824    -4.554     3.978    -3.660
  78      -4.783     4.188     0.595     3.423     2.485     4.022
  79       4.951    -4.699    -0.251     0.213    -3.886     0.792
  80      -3.347     2.340     1.006     3.045    -3.412    -3.689
  81      -3.129     0.282     2.846    -5.006    -3.337     4.667
  82       8.714    -7.531    -1.183    -1.881     3.802     0.987
  83      -2.496     2.581    -0.085    -6.765     1.111    -4.467
  84       4.401    -6.489     2.088     0.017    -5.154     1.092
  85      -3.505     4.096    -0.591     5.236     1.310     4.326
  86       5.150    -4.700    -0.450     0.888     4.233    -0.298
  87      -5.000     4.377     0.623    -4.274    -4.408     3.015
  88      -2.802     2.070     0.732     3.896    -3.696    -3.501

 Total hyperfine coupling parameters after diagonalization (MHz)
 (convention: |A_zz| > |A_xx| > |A_yy|)
  ion      A_xx      A_yy      A_zz     asymmetry (A_yy - A_xx)/ A_zz
   1       1.271     0.956     3.205      -0.098
   2       1.750     1.539     4.127      -0.051
   3       0.827     0.747     3.478      -0.023
   4       2.080     1.815     4.499      -0.059
   5       1.628     1.257     3.658      -0.101
   6       0.225     0.124     2.915      -0.035
   7       1.986     1.505     4.032      -0.119
   8       1.938     1.676     4.340      -0.060
   9       0.378     0.133     2.967      -0.083
  10       1.721     1.313     3.924      -0.104
  11       2.605     2.171     4.878      -0.089
  12       2.226     1.806     4.483      -0.094
  13       0.384     0.331     2.434      -0.022
  14       2.347     1.994     4.671      -0.076
  15       2.311     1.930     4.499      -0.085
  16       1.668     1.338     3.908      -0.084
  17      13.892     9.533    14.046      -0.310
  18      14.788    10.621    15.321      -0.272
  19      13.460     9.257    13.530      -0.311
  20      14.644    10.460    15.197      -0.275
  21      14.477    10.362    14.945      -0.275
  22      14.553    10.254    14.636      -0.294
  23      13.148     9.032    13.644      -0.302
  24      13.515     9.330    13.825      -0.303
  25      96.554    94.881    96.846      -0.017
  26      97.397    95.867    98.799      -0.015
  27      94.476    91.864    97.212      -0.027
  28      94.221    92.605    95.625      -0.017
  29      95.733    95.339    98.317      -0.004
  30      94.191    93.668    95.894      -0.005
  31      95.617    94.511   100.821      -0.011
  32      95.523    94.113    97.576      -0.014
  33      93.437    92.657    94.402      -0.008
  34     100.244    96.718   100.336      -0.035
  35      92.775    91.085    96.230      -0.018
  36      99.917    98.652   102.225      -0.012
  37      94.587    94.363    97.025      -0.002
  38      99.942    98.020   101.428      -0.019
  39      98.753    97.016    99.830      -0.017
  40      95.797    95.714    98.812      -0.001
  41       4.402     1.086    15.900      -0.209
  42       3.414    -0.859    14.792      -0.289
  43       6.485     0.557    14.994      -0.395
  44       3.722    -0.170    12.269      -0.317
  45       8.060     4.398    18.023      -0.203
  46       6.869     0.833    16.991      -0.355
  47       4.828     0.355    14.416      -0.310
  48       3.069     2.054    14.134      -0.072
  49       4.364     0.109    16.347      -0.260
  50       6.939    -1.301    15.103      -0.546
  51       5.696     0.920    16.516      -0.289
  52       7.084     1.665    17.883      -0.303
  53       3.252    -0.537    15.223      -0.249
  54       5.322     1.238    15.800      -0.258
  55       6.329     1.108    17.563      -0.297
  56       7.100     0.348    16.556      -0.408
  57       6.127     0.890    15.574      -0.336
  58       6.485    -1.307    13.510      -0.577
  59       6.982     1.993    19.170      -0.260
  60       5.674    -0.137    15.145      -0.384
[...]
  74       5.539     2.398    16.678      -0.188
  75       4.568     1.780    16.585      -0.168
  76       6.239     1.986    19.782      -0.215
  77       4.228     0.285    14.875      -0.265
  78       6.427     2.259    16.605      -0.251
  79       5.069     2.207    14.181      -0.202
  80       4.885     1.477    14.200      -0.240
  81       5.998     1.690    17.518      -0.246
  82       9.031     3.014    21.216      -0.284
  83       6.802     0.869    17.757      -0.334
  84       5.373     0.571    15.807      -0.304
  85       5.123     1.340    16.533      -0.229
  86       5.186     2.758    15.160      -0.160
  87       6.606    -0.609    15.966      -0.452
  88       2.452    -0.981    12.288      -0.279

 stress matrix after NEB project (eV)
    -47.31869     -0.27437      0.64780
     -0.27216    -48.26851      0.84785
      0.63029      0.85543    -66.51264
  FORCES: max atom, RMS     2.231109    1.078123
  FORCE total and by dimension   10.113692    1.773759
  Stress total and by dimension   94.843321   66.512638

 total charge

[...]

 magnetization (x)

# of ion       s       p       d       tot
    1        0.001   0.000   0.000   0.001
    2        0.002   0.000   0.000   0.002
    3        0.001   0.001   0.000   0.002
    4        0.002   0.000   0.000   0.002
    5        0.002   0.000   0.000   0.002
    6        0.001   0.000   0.000   0.001
    7        0.002   0.000   0.000   0.002
    8        0.002   0.000   0.000   0.002
    9        0.001   0.000   0.000   0.001
   10        0.002   0.000   0.000   0.002
   11        0.002   0.000   0.000   0.003
   12        0.002   0.000   0.000   0.002
   13        0.001   0.000   0.000   0.001
   14        0.002   0.000   0.000   0.002
   15        0.002   0.000   0.000   0.003
   16        0.002  -0.000   0.000   0.002
   17        0.007   0.002   0.001   0.010
   18        0.007   0.003   0.001   0.011
   19        0.007   0.002   0.001   0.010
   20        0.008   0.003   0.001   0.012
   21        0.007   0.003   0.001   0.011
   22        0.007   0.002   0.001   0.011
   23        0.007   0.002   0.001   0.009
   24        0.007   0.002   0.001   0.010
   25        0.015   0.028   2.786   2.829
   26        0.015   0.029   2.800   2.845
   27        0.014   0.029   2.737   2.781
   28        0.015   0.030   2.742   2.787
   29        0.015   0.031   2.760   2.806
   30        0.015   0.029   2.748   2.792
   31        0.015   0.030   2.758   2.804
   32        0.015   0.029   2.759   2.803
   33        0.015   0.031   2.725   2.770
   34        0.016   0.029   2.800   2.845
   35        0.014   0.029   2.710   2.754
   36        0.017   0.031   2.749   2.797
   37        0.015   0.030   2.741   2.786
   38        0.016   0.030   2.753   2.799
   39        0.016   0.031   2.756   2.803
   40        0.015   0.029   2.777   2.821
   41        0.002   0.029   0.000   0.031
   42        0.002   0.025   0.000   0.027
   43        0.002   0.031   0.000   0.033
   44        0.001   0.026   0.000   0.027
   45        0.003   0.046   0.000   0.049
   46        0.002   0.042   0.000   0.044
   47        0.002   0.020   0.000   0.022
   48        0.002   0.013   0.000   0.015
   49        0.002   0.023   0.000   0.025
   50        0.002   0.026   0.000   0.028
   51        0.002   0.045   0.000   0.047
   52        0.002   0.045   0.000   0.047
   53        0.002   0.026   0.000   0.028
   54        0.002   0.032   0.000   0.034
   55        0.002   0.038   0.000   0.041
   56        0.002   0.050   0.000   0.052
   57        0.002   0.041   0.000   0.043
   58        0.002   0.021   0.000   0.023
   59        0.002   0.045   0.000   0.047
   60        0.002   0.031   0.000   0.033
[...]
   74        0.002   0.040   0.000   0.042
   75        0.002   0.033   0.000   0.035
   76        0.002   0.037   0.000   0.040
   77        0.002   0.026   0.000   0.028
   78        0.002   0.041   0.000   0.043
   79        0.002   0.028   0.000   0.030
   80        0.002   0.024   0.000   0.026
   81        0.002   0.039   0.000   0.041
   82        0.003   0.054   0.000   0.057
   83        0.002   0.051   0.000   0.053
   84        0.002   0.029   0.000   0.031
   85        0.002   0.035   0.000   0.037
   86        0.002   0.033   0.000   0.035
   87        0.002   0.038   0.000   0.040
   88        0.001   0.002   0.000   0.004
tot          0.422   2.055  44.112  46.589