 vasp.5.4.4.18Apr17-6-g9f103f2a35 (build Dec 02 2020 12:53:39) complex

 executed on             LinuxIFC date 2021.08.05  02:17:50

 INCAR:
 POTCAR:    PAW_PBE Na_pv 19Sep2006
 POTCAR:    PAW_PBE Mg_pv 13Apr2007
 POTCAR:    PAW_PBE Mn_pv 02Aug2007
 POTCAR:    PAW_PBE O 08Apr2002

 POTCAR:    PAW_PBE Na_pv 19Sep2006
   VRHFIN =Na: p6s1

   TITEL  = PAW_PBE Na_pv 19Sep2006
   POMASS =   22.990; ZVAL   =    7.000    mass and valenz
   ENMAX  =  259.561; ENMIN  =  194.671 eV

 POTCAR:    PAW_PBE Mg_pv 13Apr2007
   VRHFIN =Mg: p6s2

   TITEL  = PAW_PBE Mg_pv 13Apr2007
   POMASS =   24.305; ZVAL   =    8.000    mass and valenz
   ENMAX  =  403.929; ENMIN  =  302.947 eV

 POTCAR:    PAW_PBE Mn_pv 02Aug2007
   VRHFIN =Mn: 3p4s3d

   TITEL  = PAW_PBE Mn_pv 02Aug2007
   POMASS =   54.938; ZVAL   =   13.000    mass and valenz
   ENMAX  =  269.864; ENMIN  =  202.398 eV

 POTCAR:    PAW_PBE O 08Apr2002
   VRHFIN =O: s2p4

   TITEL  = PAW_PBE O 08Apr2002
   POMASS =   16.000; ZVAL   =    6.000    mass and valenz
   ENMAX  =  400.000; ENMIN  =  300.000 eV

 Optimization of the real space projectors (new method)

 maximal supplied QI-value         = 17.01
 optimisation between [QCUT,QGAM] = [ 10.20, 20.41] = [ 29.16,116.64] Ry
 Optimized for a Real-space Cutoff    1.30 Angstroem

   l    n(q)    QCUT    max X(q) W(low)/X(q) W(high)/X(q)  e(spline)
   1      7    10.205     4.940    0.23E-03    0.84E-03    0.11E-06
   1      7    10.205     6.253    0.40E-03    0.13E-02    0.18E-06
   0      8    10.205    37.438    0.23E-03    0.37E-03    0.42E-07
   0      8    10.205     9.606    0.16E-03    0.26E-03    0.31E-07
 Optimization of the real space projectors (new method)

[...]

   l    n(q)    QCUT    max X(q) W(low)/X(q) W(high)/X(q)  e(spline)
   1      8    10.239     3.658    0.23E-03    0.30E-03    0.98E-07
   1      8    10.239     5.612    0.32E-03    0.65E-03    0.21E-06
   2      7    10.239    55.373    0.42E-03    0.45E-03    0.65E-07
   2      7    10.239    50.863    0.43E-03    0.48E-03    0.67E-07
   0      8    10.239    79.536    0.11E-03    0.21E-03    0.56E-07
   0      8    10.239    38.668    0.96E-04    0.19E-03    0.52E-07
 Optimization of the real space projectors (new method)

 maximal supplied QI-value         = 24.76
 optimisation between [QCUT,QGAM] = [ 10.15, 20.30] = [ 28.85,115.39] Ry
 Optimized for a Real-space Cutoff    1.38 Angstroem

   l    n(q)    QCUT    max X(q) W(low)/X(q) W(high)/X(q)  e(spline)
   0      8    10.150    20.381    0.22E-03    0.32E-03    0.29E-06
   0      8    10.150    15.268    0.23E-03    0.35E-03    0.30E-06
   1      8    10.150     5.964    0.46E-03    0.53E-03    0.21E-06
   1      8    10.150     5.382    0.38E-03    0.45E-03    0.19E-06
  PAW_PBE Na_pv 19Sep2006               :
  PAW_PBE Mg_pv 13Apr2007               :
  PAW_PBE Mn_pv 02Aug2007               :
  PAW_PBE O 08Apr2002                   :

 POSCAR: Na Mg Mn  O
  positions in cartesian coordinates

 METAGGA = SCAN     LMAXTAU =  6    LMIXTAU =  F

 VTST: version 3.2, (02/03/18)

 CHAIN: initializing optimizer

 OPT: Using VASP Dynamics algorithm
 CHAIN: Read ICHAIN            0

 POSCAR: Na Mg Mn  O
  positions in cartesian coordinates

 ion  position               nearest neighbor table
   1  0.014  0.268  0.254-  54 2.29  55 2.29  63 2.31  64 2.37  30 2.88
   2  0.767  0.256  0.740-  56 2.16  57 2.29
   3  0.739  0.906  0.759-  85 2.31  82 2.37  40 2.92
   4  0.901  0.648  0.754-  71 2.20  73 2.24  34 2.88
   5  0.250  0.002  0.245-  51 2.29  76 2.32  67 2.32  42 2.38  36 2.95
   6  0.502  0.772  0.253-  79 2.19  87 2.23  78 2.34  88 2.36  38 2.95
   7  0.287  0.761  0.755-  84 2.32  83 2.34
   8  0.109  0.430  0.753-  58 2.33  80 2.38
   9  0.424  0.413  0.240-  41 2.29  43 2.30  52 2.35
  10  0.088  0.600  0.247-  64 2.33  86 2.35  37 2.79  39 2.87
  11  0.760  0.561  0.236-  43 2.25  66 2.33  65 2.34
  12  0.423  0.116  0.761-  47 2.23  49 2.25  46 2.30
  13  0.557  0.536  0.751-  48 2.22  45 2.29  33 2.87
  14  0.105  0.105  0.761-  47 2.27  61 2.28  44 2.29  25 2.71  27 2.93
  15  0.573  0.121  0.246-  42 2.26  62 2.34  53 2.35  29 2.80  31 2.91
  16  0.903  0.918  0.251-  54 2.35  74 2.37  65 2.37
  17  0.751  0.417  0.994-  49 1.94  66 2.00  43 2.01  60 2.03  71 2.07  29 2.84  26 2.84
  18  0.408  0.275  0.506-  45 1.96  50 2.08  51 2.09  46 2.10  44 2.10  52 2.12  32 2.80
  19  0.261  0.419  0.008-  41 2.01  48 2.03  78 2.06  83 2.06  55 2.07  61 2.08  26 2.84  33 2.85

  20  0.904  0.270  0.495-  62 2.00  63 2.02  64 2.08  57 2.09  58 2.14  56 2.16  28 2.80  40 2.82

[...]

  22  0.891  0.755  0.480-  68 2.03  75 2.05  74 2.07  76 2.13  70 2.24  69 2.25  35 2.74  28 2.82

  23  0.773  0.930  0.010-  54 1.98  72 2.01  59 2.05  65 2.11  79 2.14  85 2.16  25 2.81  30 2.83
                            34 2.85
  24  0.410  0.766  0.513-  80 1.96  81 1.97  82 2.02  88 2.07  87 2.10  35 2.82
  25  0.097  0.088  0.003-  54 1.88  41 1.94  47 1.95  67 1.95  61 1.97  72 2.03  14 2.71  23 2.81
                            26 2.83  34 2.90  30 2.91
  26  0.423  0.254  1.000-  48 1.83  49 1.87  42 1.89  47 1.92  43 1.98  41 2.01  25 2.83  19 2.84
                            17 2.84  33 2.88  29 2.94
  27  0.069  0.102  0.502-  50 1.88  69 1.91  58 1.91  76 1.92  63 1.97  44 2.03  40 2.84  32 2.90
                            36 2.91  14 2.93
  28  0.743  0.431  0.494-  75 1.83  57 1.88  62 1.91  68 1.92  52 1.94  46 2.09  20 2.80  22 2.82
                            31 2.85  39 2.86  35 2.99
  29  0.599  0.090  0.000-  59 1.89  84 1.91  79 1.92  49 1.94  42 1.97  53 1.98  15 2.80  17 2.84
                            38 2.84  30 2.87  26 2.94
  30  0.929  0.255  0.007-  60 1.85  53 1.86  61 1.89  59 1.91  55 1.93  54 1.98  23 2.83  29 2.87
                             1 2.88  37 2.89  25 2.91
  31  0.567  0.103  0.505-  62 1.84  46 1.89  88 1.91  51 1.91  56 1.92  81 1.96  28 2.85  36 2.88
                            40 2.90  15 2.91
  32  0.245  0.436  0.496-  45 1.84  50 1.94  64 1.95  58 1.95  80 1.97  87 1.97  18 2.80  35 2.86
                            27 2.90  39 2.94
  33  0.589  0.586  0.004-  78 1.83  43 1.86  71 1.88  48 1.89  85 1.91  65 1.95  19 2.85  13 2.87
                            26 2.88  38 2.92  34 2.92
  34  0.925  0.754  0.997-  67 1.85  72 1.86  71 1.92  73 1.94  65 1.96  66 1.96  23 2.85   4 2.88
                            37 2.88  25 2.90  33 2.92
  35  0.575  0.608  0.488-  74 1.83  87 1.90  82 1.91  45 1.94  52 1.94  68 2.00  22 2.74  24 2.82
                            32 2.86  40 2.93  28 2.99
  36  0.235  0.932  0.502-  81 1.88  51 1.88  86 1.88  44 1.91  70 1.93  76 1.95  39 2.86  31 2.88
                            27 2.91   5 2.95
  37  0.092  0.589  0.999-  55 1.87  66 1.88  60 1.93  77 1.95  73 1.95  83 2.03  10 2.79  21 2.83
                            34 2.88  30 2.89  38 2.93
  38  0.430  0.763  0.997-  77 1.88  83 1.89  79 1.94  85 1.95  78 1.97  84 2.01  21 2.82  29 2.84
                            33 2.92  37 2.93   6 2.95
  39  0.072  0.602  0.503-  80 1.84  75 1.87  70 1.88  64 1.89  86 1.90  57 2.01  28 2.86  36 2.86
                            10 2.87  32 2.94
  40  0.742  0.945  0.501-  63 1.86  69 1.91  56 1.93  82 1.94  88 1.96  74 2.07  20 2.82  27 2.84
                            31 2.90   3 2.92  35 2.93
  41  0.255  0.245  0.103-  25 1.94  26 2.01  19 2.01   9 2.29
  42  0.428  0.093  0.084-  26 1.89  29 1.97  21 2.05  15 2.26   5 2.38
  43  0.588  0.427  0.091-  33 1.86  26 1.98  17 2.01  11 2.25   9 2.30
  44  0.232  0.087  0.599-  36 1.91  27 2.03  18 2.10  14 2.29
  45  0.409  0.452  0.583-  32 1.84  35 1.94  18 1.96  13 2.29
  46  0.578  0.261  0.605-  31 1.89  28 2.09  18 2.10  12 2.30
  47  0.262  0.098  0.905-  26 1.92  25 1.95  21 2.05  12 2.23  14 2.27
  48  0.435  0.417  0.917-  26 1.83  33 1.89  19 2.03  13 2.22
  49  0.579  0.247  0.913-  26 1.87  29 1.94  17 1.94  12 2.25
  50  0.224  0.259  0.408-  27 1.88  32 1.94  18 2.08
  51  0.398  0.089  0.414-  36 1.88  31 1.91  18 2.09   5 2.29
  52  0.588  0.447  0.401-  28 1.94  35 1.94  18 2.12   9 2.35
  53  0.770  0.237  0.103-  30 1.86  29 1.98  15 2.35
  54  0.947  0.097  0.099-  25 1.88  23 1.98  30 1.98   1 2.29  16 2.35
  55  0.084  0.432  0.093-  37 1.87  30 1.93  19 2.07   1 2.29
  56  0.720  0.092  0.599-  31 1.92  40 1.93   2 2.16  20 2.16
  57  0.895  0.439  0.597-  28 1.88  39 2.01  20 2.09   2 2.29
  58  0.088  0.270  0.594-  27 1.91  32 1.95  20 2.14   8 2.33
  59  0.766  0.099  0.914-  29 1.89  30 1.91  23 2.05
  60  0.931  0.412  0.917-  30 1.85  37 1.93  17 2.03
  61  0.080  0.246  0.911-  30 1.89  25 1.97  19 2.08  14 2.28
  62  0.720  0.254  0.413-  31 1.84  28 1.91  20 2.00  15 2.34
  63  0.900  0.092  0.406-  40 1.86  27 1.97  20 2.02   1 2.31
  64  0.087  0.453  0.408-  39 1.89  32 1.95  20 2.08  10 2.33   1 2.37
  65  0.760  0.738  0.100-  33 1.95  34 1.96  23 2.11  11 2.34  16 2.37
  66  0.928  0.586  0.083-  37 1.88  34 1.96  17 2.00  11 2.33
  67  0.082  0.909  0.084-  34 1.85  25 1.95  21 2.02   5 2.32
  68  0.730  0.586  0.586-  28 1.92  35 2.00  22 2.03
  69  0.903  0.947  0.593-  27 1.91  40 1.91  22 2.25
  70  0.078  0.762  0.594-  39 1.88  36 1.93  22 2.24
  71  0.750  0.600  0.909-  33 1.88  34 1.92  17 2.07   4 2.20
  72  0.928  0.912  0.907-  34 1.86  23 2.01  25 2.03
  73  0.079  0.741  0.899-  34 1.94  37 1.95  21 2.03   4 2.24
  74  0.714  0.765  0.394-  35 1.83  22 2.07  40 2.07  16 2.37
  75  0.906  0.575  0.408-  28 1.83  39 1.87  22 2.05
  76  0.085  0.952  0.405-  27 1.92  36 1.95  22 2.13   5 2.32
  77  0.265  0.756  0.082-  38 1.88  21 1.93  37 1.95
  78  0.443  0.604  0.091-  33 1.83  38 1.97  19 2.06   6 2.34
  79  0.581  0.925  0.098-  29 1.92  38 1.94  23 2.14   6 2.19
  80  0.226  0.594  0.586-  39 1.84  24 1.96  32 1.97   8 2.38
  81  0.395  0.934  0.591-  36 1.88  31 1.96  24 1.97
  82  0.592  0.767  0.591-  35 1.91  40 1.94  24 2.02   3 2.37
  83  0.272  0.598  0.910-  38 1.89  37 2.03  19 2.06   7 2.34
  84  0.454  0.938  0.894-  29 1.91  38 2.01  21 2.16   7 2.32
  85  0.589  0.745  0.910-  33 1.91  38 1.95  23 2.16   3 2.31
  86  0.215  0.768  0.406-  36 1.88  39 1.90  10 2.35
  87  0.410  0.599  0.399-  35 1.90  32 1.97  24 2.10   6 2.23
  88  0.573  0.947  0.413-  31 1.91  40 1.96  24 2.07   6 2.36

  LATTYP: Found a hexagonal cell.
 ALAT       =    10.0190000534
 C/A-ratio  =     1.1196726572

  Lattice vectors:

 A1 = (  10.0190000534,   0.0000000000,   0.0000000000)
 A2 = (  -5.0095000267,   8.6767085668,   0.0000000000)
 A3 = (   0.0000000000,   0.0000000000,  11.2180004120)

Analysis of symmetry for initial positions (statically):
 Subroutine PRICEL returns:
 Original cell was already a primitive cell.

 Routine SETGRP: Setting up the symmetry group for a
 hexagonal supercell.

 Subroutine GETGRP returns: Found  1 space group operations
 (whereof  1 operations were pure point group operations)
 out of a pool of 24 trial point group operations.

The static configuration has the point symmetry C_1 .

Analysis of symmetry for dynamics (positions and initial velocities):
 Subroutine PRICEL returns:
 Original cell was already a primitive cell.

[...]

The dynamic configuration has the point symmetry C_1 .

[...]
   4       0.002     0.002     1.811    -0.087     1.811
   5       0.011     0.011     1.820    -0.097     1.819
   6       0.007     0.007     1.894    -0.070     1.894
   7      -0.002    -0.002     2.585    -0.126     2.584
   8      -0.004    -0.003     2.375    -0.135     2.374
   9      -0.017    -0.017     2.343    -0.083     2.344
  10       0.013     0.014     1.176    -0.074     1.175
  11       0.006     0.006     3.200    -0.115     3.200
  12       0.001    -0.000     3.096    -0.094     3.097
  13       0.017     0.018     1.699    -0.096     1.699
  14       0.007     0.006     0.556    -0.037     0.557
  15       0.007     0.009     1.056    -0.067     1.054
  16       0.002     0.003     2.557    -0.131     2.557
  17       0.073     0.074    14.029     0.145    14.028
  18       0.060     0.064    12.773     0.118    12.769
  19       0.068     0.070    13.542     0.146    13.539
  20       0.039     0.042    12.846     0.129    12.842
  21       0.068     0.068    13.497     0.147    13.497
  22       0.006     0.010    12.748     0.086    12.745
  23       0.047     0.050    12.848     0.122    12.845
  24       0.062     0.063    13.247     0.131    13.246
  25     162.413   162.396    99.411  -141.005    99.429
  26     160.313   160.289    96.009  -138.056    96.033
  27     161.802   161.779    97.777  -140.037    97.799
  28     160.071   160.054    93.767  -137.716    93.784
  29     161.046   161.019    98.936  -139.238    98.963
  30     159.128   159.106    96.842  -136.563    96.865
  31     159.761   159.748    93.574  -137.304    93.587
  32     162.082   162.072    98.266  -140.413    98.276
  33     158.510   158.492    94.855  -135.539    94.873
  34     160.316   160.302    94.794  -138.157    94.808
  35     159.783   159.768    93.092  -137.337    93.107
  36     160.020   160.001    94.945  -137.760    94.964
  37     161.758   161.734   101.675  -140.068   101.699
  38     161.950   161.934    98.086  -140.330    98.102
  39     159.102   159.080    96.334  -136.290    96.355
  40     161.588   161.570    97.958  -139.805    97.976
  41       1.867     1.870     8.035    -1.773     8.032
  42       1.988     1.993     5.949    -2.034     5.944
  43       1.760     1.762     5.811    -1.776     5.809
  44       1.133     1.139     5.682    -1.059     5.676
  45       3.465     3.465     9.137    -3.581     9.137
  46       2.258     2.267     8.092    -2.229     8.084
  47       2.554     2.557     8.205    -2.566     8.203
  48       3.771     3.775     9.795    -3.911     9.791
  49       2.285     2.291     6.953    -2.341     6.947
  50       2.413     2.420     8.526    -2.398     8.519
  51       2.147     2.149     6.213    -2.217     6.211
  52       2.320     2.322     6.208    -2.412     6.206
  53       3.726     3.734    11.577    -3.752    11.570
  54       2.162     2.165     7.220    -2.162     7.217
  55       2.636     2.636     7.559    -2.698     7.559
  56       1.615     1.621     6.825    -1.566     6.818
  57       2.345     2.349     7.802    -2.342     7.799
  58       2.012     2.011     6.806    -2.017     6.807
  59       2.034     2.040     6.688    -2.059     6.681
  60       1.640     1.643     5.538    -1.667     5.535
[...]
  74       2.464     2.470     8.409    -2.460     8.403
  75       2.864     2.865     7.731    -2.971     7.729
  76       1.588     1.590     5.502    -1.584     5.499
  77       2.703     2.705     8.597    -2.727     8.595
  78       2.357     2.364     6.735    -2.443     6.728
  79       2.259     2.261     8.386    -2.206     8.384
  80       2.337     2.343     7.057    -2.390     7.050
  81       1.842     1.844     5.516    -1.890     5.513
  82       1.907     1.905     7.365    -1.850     7.366
  83       1.802     1.805     6.856    -1.766     6.853
  84       2.287     2.291     9.138    -2.205     9.134
  85       1.977     1.982     6.751    -1.973     6.746
  86       2.419     2.422     7.827    -2.439     7.825
  87       2.012     2.019     7.399    -1.997     7.392
  88       1.880     1.885     6.287    -1.893     6.282

 Dipolar hyperfine coupling parameters (MHz)
  ion      A_xx      A_yy      A_zz      A_xy      A_xz      A_yz
   1      -0.732    -0.729     1.461    -0.152     0.357     0.140
   2      -0.759    -0.704     1.463     0.114     0.436    -0.202
   3      -0.647    -0.626     1.273     0.002    -0.072    -0.123
   4      -0.625    -0.842     1.466    -0.025    -0.052     0.439
   5      -0.540    -0.780     1.319    -0.013     0.122    -0.263
   6      -0.708    -0.632     1.340    -0.190     0.372     0.124
   7      -0.738    -0.695     1.434     0.093     0.418    -0.239
   8      -0.854    -0.667     1.520    -0.115    -0.389    -0.200
   9      -0.808    -0.639     1.447     0.050    -0.421     0.222
  10      -0.902    -0.980     1.881    -0.053    -0.054     0.021
  11      -0.589    -0.902     1.492     0.006     0.068    -0.459
  12      -0.683    -0.970     1.653    -0.035     0.029     0.481
  13      -0.906    -0.833     1.739    -0.034     0.053    -0.117
  14      -0.968    -1.049     2.017    -0.032     0.098    -0.018
  15      -0.903    -0.993     1.896    -0.084     0.009     0.114
  16      -0.761    -0.630     1.391     0.048    -0.390     0.203
  17       1.655     1.354    -3.009     0.183     0.068     0.064
  18       1.351     1.538    -2.888    -0.240     0.057    -0.045
  19       1.481     1.450    -2.931    -0.005    -0.046    -0.056
  20       1.563     1.341    -2.904    -0.016    -0.013     0.016
  21       1.381     1.589    -2.970    -0.057     0.053    -0.048
  22       1.254     1.460    -2.714    -0.047     0.083     0.009
  23       1.500     1.365    -2.864    -0.021     0.017     0.088
  24       1.349     1.543    -2.892     0.015    -0.191     0.056
  25      -0.049    -0.368     0.418     0.987     0.761    -0.863
  26      -0.286    -2.260     2.546     1.248     0.361    -0.000
  27       0.521    -0.083    -0.437    -0.255     1.134     0.376
  28       0.472    -0.086    -0.386    -0.102     0.225     0.121
  29      -1.740     2.217    -0.477     0.048    -0.939     0.197
  30       0.888    -0.459    -0.429     0.107     1.131     0.761
  31       0.038    -0.079     0.042    -1.039    -0.065    -0.929
  32      -0.958    -0.524     1.483     0.302    -0.989     0.304
  33      -1.101    -0.395     1.496     0.906     0.288    -0.074
  34      -0.198    -0.664     0.862    -1.033    -0.154     1.029
  35       1.156    -0.448    -0.708     0.169    -0.897     1.132
  36       0.989    -0.901    -0.088     0.030    -0.508    -0.512
  37      -1.452    -2.014     3.466    -1.121    -0.098     1.100
  38      -0.223    -0.626     0.848     0.188     0.420    -0.836
  39       0.097     0.371    -0.468     0.617    -1.027     0.029
  40       0.395     0.539    -0.934    -0.558     0.909     0.873
  41      -1.320     1.054     0.266    -4.578     1.966    -4.779
  42      -3.457     2.041     1.416     3.874     2.229     4.967
  43       2.866    -4.758     1.892     0.755    -4.941    -0.549
  44      -3.585     2.942     0.643     4.760    -2.949    -3.334
  45      -4.227     3.043     1.185    -5.565    -3.758     3.020
  46       5.356    -4.038    -1.319     0.858     3.533    -2.137
  47      -2.310     1.085     1.225    -4.538     2.028    -3.610
  48       5.514    -7.533     2.018     1.019    -4.979     0.112
  49      -5.082     2.615     2.467     4.224     2.712     4.003
  50       6.636    -7.391     0.755    -0.161     5.322    -1.065
  51      -2.505     1.602     0.903    -4.881    -2.380     3.301
  52      -4.044     1.301     2.742     4.970    -2.177    -3.206
  53      -3.340     4.242    -0.902    -7.312     2.699    -3.297
  54      -4.155     3.482     0.673     3.931     4.220     2.793
  55       4.853    -5.926     1.073     0.406    -4.402     1.189
  56      -3.133     3.267    -0.134     6.138    -0.542    -4.920
  57      -2.754     3.449    -0.696    -4.153    -3.831     1.991
  58       5.343    -5.995     0.651    -1.444     5.290     0.060
  59      -3.777     3.413     0.365    -4.825     2.889    -5.097
  60       4.684    -5.382     0.698     0.370    -4.600     0.525
[...]
  74       6.314    -5.530    -0.783    -1.337     3.287     1.516
  75      -0.763     0.485     0.278    -6.549    -1.158     3.656
  76      -1.748     2.033    -0.285     4.644    -0.231    -3.320
  77      -3.468     0.936     2.532    -5.211     2.747    -5.139
  78      -3.429     2.183     1.246     5.718     1.822     3.694
  79       6.227    -4.795    -1.432    -1.300    -4.109     0.795
  80      -3.842     3.189     0.653     5.035    -1.938    -3.417
  81      -3.150     0.756     2.394    -3.366    -3.626     2.730
  82       7.305    -5.663    -1.642    -0.534     2.917    -1.301
  83      -2.724     0.160     2.564    -4.040     3.231    -4.616
  84       6.606    -5.838    -0.768    -0.423    -3.529    -0.187
  85      -2.876     1.995     0.881     4.863     3.942     5.185
  86       8.342    -6.723    -1.619     0.004     4.016     1.365
  87      -3.524     1.709     1.816    -5.434    -3.459     5.329
  88      -4.487     1.788     2.699     3.316    -2.480    -4.331

 Total hyperfine coupling parameters after diagonalization (MHz)
 (convention: |A_zz| > |A_xx| > |A_yy|)
  ion      A_xx      A_yy      A_zz     asymmetry (A_yy - A_xx)/ A_zz
   1       1.089     0.741     3.201      -0.109
   2       2.471     2.150     4.650      -0.069
   3       0.462     0.445     2.379      -0.007
   4       1.186     0.887     3.359      -0.089
   5       1.272     1.007     3.179      -0.083
   6       1.409     0.969     3.303      -0.133
   7       1.961     1.675     4.117      -0.070
   8       1.762     1.390     3.971      -0.094
   9       1.715     1.429     3.887      -0.074
  10       0.299     0.168     3.058      -0.043
  11       2.610     2.212     4.779      -0.083
  12       2.418     2.037     4.836      -0.079
  13       0.873     0.779     3.444      -0.027
  14      -0.504    -0.403     2.577       0.039
  15       0.200     0.007     2.955      -0.065
  16       1.941     1.696     4.033      -0.061
  17      15.296    11.017    15.771      -0.271
  18      13.956     9.879    14.471      -0.282
  19      14.990    10.607    15.021      -0.292
  20      14.183     9.938    14.406      -0.295
  21      14.864    10.526    15.102      -0.287
  22      13.990    10.029    14.214      -0.279
  23      14.209     9.979    14.348      -0.295
  24      14.602    10.344    14.791      -0.288
  25     100.219    97.624   100.444      -0.026
  26      96.305    93.164    98.630      -0.032
  27      97.879    96.448    99.072      -0.014
  28      93.741    93.293    94.320      -0.005
  29      98.975    96.718   101.194      -0.022
  30      96.684    95.394    98.515      -0.013
  31      93.692    92.141    94.928      -0.016
  32      97.896    96.808   100.123      -0.011
  33      95.090    93.128    96.402      -0.020
  34      94.900    93.102    96.422      -0.019
  35      93.465    91.185    94.671      -0.024
  36      94.916    93.797    96.179      -0.012
  37     100.995    98.705   105.396      -0.022
  38      97.951    96.964    99.392      -0.010
  39      96.523    95.007    97.535      -0.016
  40      98.784    96.133    99.011      -0.027
  41       5.566     2.589    15.940      -0.187
  42       3.102     0.462    14.269      -0.185
  43       3.228     0.976    13.223      -0.170
  44       3.963    -0.624    13.691      -0.335
  45       8.098     1.430    17.882      -0.373
  46       7.023     2.266    14.963      -0.318
  47       6.571     2.714    15.323      -0.252
  48       8.355     2.147    18.869      -0.329
  49       5.637    -0.100    15.303      -0.375
  50       6.269     0.967    18.322      -0.289
  51       4.570     0.459    13.603      -0.302
  52       5.774    -0.815    13.658      -0.482
  53       9.134     3.724    21.852      -0.248
  54       6.441     0.153    15.056      -0.418
  55       6.064     1.292    15.320      -0.311
  56       5.183    -0.756    16.027      -0.371
  57       6.860     1.544    14.992      -0.355
  58       4.216     0.520    15.685      -0.236
  59       3.344     0.459    16.241      -0.178
  60       3.342     0.024    13.238      -0.251
[...]
  74       7.162     2.004    16.042      -0.321
  75       6.803     0.616    15.769      -0.392
  76       4.554     0.005    11.939      -0.381
  77       6.219     1.625    17.940      -0.256
  78       5.570    -0.288    14.903      -0.393
  79       5.189     3.389    16.574      -0.109
  80       5.588     0.580    14.982      -0.334
  81       4.284    -0.111    12.366      -0.355
  82       5.193     1.311    15.595      -0.249
  83       4.000     1.281    15.277      -0.178
  84       6.979     3.259    17.165      -0.217
  85       3.003     0.737    16.496      -0.137
  86       5.191     0.686    17.597      -0.256
  87       4.299     0.451    17.426      -0.221
  88       4.316     0.314    14.215      -0.282

 stress matrix after NEB project (eV)
    -41.61951      2.19538     -3.86536
      2.18589    -42.27070     -1.29014
     -3.84823     -1.33164    -53.83685
  FORCES: max atom, RMS     2.425723    1.095785
  FORCE total and by dimension   10.279373    1.759214
  Stress total and by dimension   80.375288   53.836846

 total charge

[...]

 magnetization (x)

# of ion       s       p       d       tot
    1        0.001   0.000   0.000   0.002
    2        0.002   0.001   0.000   0.003
    3        0.001   0.000   0.000   0.001
    4        0.001   0.000   0.000   0.002
    5        0.001   0.000   0.000   0.002
    6        0.001   0.000   0.000   0.002
    7        0.002   0.000   0.000   0.002
    8        0.002   0.000   0.000   0.002
    9        0.002  -0.000   0.000   0.001
   10        0.001   0.001   0.000   0.001
   11        0.002   0.000   0.000   0.003
   12        0.002   0.000   0.000   0.002
   13        0.001   0.001   0.000   0.002
   14        0.000   0.000   0.000   0.001
   15        0.001   0.000   0.000   0.001
   16        0.002   0.000   0.000   0.002
   17        0.007   0.003   0.001   0.011
   18        0.007   0.002   0.001   0.011
   19        0.007   0.003   0.001   0.011
   20        0.007   0.002   0.001   0.010
   21        0.007   0.003   0.001   0.011
   22        0.007   0.001   0.001   0.010
   23        0.007   0.002   0.001   0.011
   24        0.007   0.003   0.001   0.011
   25        0.016   0.029   2.786   2.831
   26        0.015   0.030   2.740   2.785
   27        0.016   0.030   2.770   2.815
   28        0.014   0.029   2.735   2.779
   29        0.016   0.031   2.758   2.805
   30        0.015   0.031   2.717   2.763
   31        0.014   0.030   2.728   2.773
   32        0.016   0.030   2.776   2.821
   33        0.015   0.032   2.703   2.750
   34        0.015   0.030   2.741   2.786
   35        0.014   0.031   2.730   2.775
   36        0.015   0.031   2.733   2.779
   37        0.017   0.030   2.773   2.820
   38        0.016   0.030   2.774   2.820
   39        0.015   0.031   2.715   2.761
   40        0.016   0.030   2.767   2.812
   41        0.002   0.026   0.000   0.029
   42        0.002   0.031   0.000   0.032
   43        0.002   0.026   0.000   0.028
   44        0.002   0.015   0.000   0.016
   45        0.002   0.055   0.000   0.057
   46        0.002   0.034   0.000   0.036
   47        0.002   0.039   0.000   0.041
   48        0.002   0.060   0.000   0.062
   49        0.002   0.035   0.000   0.036
   50        0.002   0.036   0.000   0.038
   51        0.002   0.033   0.000   0.034
   52        0.002   0.036   0.000   0.038
   53        0.003   0.058   0.000   0.061
   54        0.002   0.033   0.000   0.035
   55        0.002   0.041   0.000   0.043
   56        0.002   0.022   0.000   0.024
   57        0.002   0.036   0.000   0.038
   58        0.002   0.030   0.000   0.032
   59        0.002   0.030   0.000   0.032
   60        0.002   0.024   0.000   0.025
[...]
   74        0.002   0.037   0.000   0.039
   75        0.002   0.045   0.000   0.046
   76        0.001   0.024   0.000   0.025
   77        0.002   0.041   0.000   0.043
   78        0.002   0.036   0.000   0.038
   79        0.002   0.034   0.000   0.036
   80        0.002   0.036   0.000   0.038
   81        0.001   0.028   0.000   0.029
   82        0.002   0.028   0.000   0.030
   83        0.002   0.026   0.000   0.028
   84        0.003   0.033   0.000   0.036
   85        0.002   0.030   0.000   0.032
   86        0.002   0.037   0.000   0.039
   87        0.002   0.029   0.000   0.031
   88        0.002   0.028   0.000   0.030
tot          0.422   2.165  43.956  46.543