 vasp.5.4.4.18Apr17-6-g9f103f2a35 (build Dec 02 2020 12:53:39) complex

 executed on             LinuxIFC date 2021.08.03  19:33:04

 INCAR:
 POTCAR:    PAW_PBE Na_pv 19Sep2006
 POTCAR:    PAW_PBE Mg_pv 13Apr2007
 POTCAR:    PAW_PBE Mn_pv 02Aug2007
 POTCAR:    PAW_PBE O 08Apr2002

 POTCAR:    PAW_PBE Na_pv 19Sep2006
   VRHFIN =Na: p6s1

   TITEL  = PAW_PBE Na_pv 19Sep2006
   POMASS =   22.990; ZVAL   =    7.000    mass and valenz
   ENMAX  =  259.561; ENMIN  =  194.671 eV

 POTCAR:    PAW_PBE Mg_pv 13Apr2007
   VRHFIN =Mg: p6s2

   TITEL  = PAW_PBE Mg_pv 13Apr2007
   POMASS =   24.305; ZVAL   =    8.000    mass and valenz
   ENMAX  =  403.929; ENMIN  =  302.947 eV

 POTCAR:    PAW_PBE Mn_pv 02Aug2007
   VRHFIN =Mn: 3p4s3d

   TITEL  = PAW_PBE Mn_pv 02Aug2007
   POMASS =   54.938; ZVAL   =   13.000    mass and valenz
   ENMAX  =  269.864; ENMIN  =  202.398 eV

 POTCAR:    PAW_PBE O 08Apr2002
   VRHFIN =O: s2p4

   TITEL  = PAW_PBE O 08Apr2002
   POMASS =   16.000; ZVAL   =    6.000    mass and valenz
   ENMAX  =  400.000; ENMIN  =  300.000 eV

 Optimization of the real space projectors (new method)

 maximal supplied QI-value         = 17.01
 optimisation between [QCUT,QGAM] = [ 10.20, 20.41] = [ 29.16,116.64] Ry
 Optimized for a Real-space Cutoff    1.30 Angstroem

   l    n(q)    QCUT    max X(q) W(low)/X(q) W(high)/X(q)  e(spline)
   1      7    10.205     4.940    0.23E-03    0.84E-03    0.11E-06
   1      7    10.205     6.253    0.40E-03    0.13E-02    0.18E-06
   0      8    10.205    37.438    0.23E-03    0.37E-03    0.42E-07
   0      8    10.205     9.606    0.16E-03    0.26E-03    0.31E-07
 Optimization of the real space projectors (new method)

[...]

   l    n(q)    QCUT    max X(q) W(low)/X(q) W(high)/X(q)  e(spline)
   1      8    10.239     3.658    0.23E-03    0.30E-03    0.98E-07
   1      8    10.239     5.612    0.32E-03    0.65E-03    0.21E-06
   2      7    10.239    55.373    0.42E-03    0.45E-03    0.65E-07
   2      7    10.239    50.863    0.43E-03    0.48E-03    0.67E-07
   0      8    10.239    79.536    0.11E-03    0.21E-03    0.56E-07
   0      8    10.239    38.668    0.96E-04    0.19E-03    0.52E-07
 Optimization of the real space projectors (new method)

 maximal supplied QI-value         = 24.76
 optimisation between [QCUT,QGAM] = [ 10.15, 20.30] = [ 28.85,115.39] Ry
 Optimized for a Real-space Cutoff    1.38 Angstroem

   l    n(q)    QCUT    max X(q) W(low)/X(q) W(high)/X(q)  e(spline)
   0      8    10.150    20.381    0.22E-03    0.32E-03    0.29E-06
   0      8    10.150    15.268    0.23E-03    0.35E-03    0.30E-06
   1      8    10.150     5.964    0.46E-03    0.53E-03    0.21E-06
   1      8    10.150     5.382    0.38E-03    0.45E-03    0.19E-06
  PAW_PBE Na_pv 19Sep2006               :
  PAW_PBE Mg_pv 13Apr2007               :
  PAW_PBE Mn_pv 02Aug2007               :
  PAW_PBE O 08Apr2002                   :

 POSCAR: Na Mg Mn  O
  positions in cartesian coordinates

 METAGGA = SCAN     LMAXTAU =  6    LMIXTAU =  F

 VTST: version 3.2, (02/03/18)

 CHAIN: initializing optimizer

 OPT: Using VASP Dynamics algorithm
 CHAIN: Read ICHAIN            0

 POSCAR: Na Mg Mn  O
  positions in cartesian coordinates

 ion  position               nearest neighbor table
   1  0.659  0.924  0.252-  63 2.31  88 2.32  54 2.36
   2  0.659  0.683  0.747-  72 2.20  69 2.26  82 2.37
   3  0.304  0.566  0.742-  85 2.28  82 2.32  80 2.33  40 2.83
   4  0.472  0.266  0.745-  45 2.28
   5  0.396  0.134  0.251-  52 2.13  43 2.24  42 2.27  28 2.91  26 2.95
   6  0.785  0.298  0.247-  66 2.31  75 2.33  53 2.37
   7  0.839  0.431  0.751-
   8  0.821  0.104  0.753-  61 2.26  32 2.89  30 2.89
   9  0.311  0.779  0.254-  86 2.31  77 2.32  88 2.36  79 2.38
  10  0.146  0.418  0.260-  64 2.14  55 2.31  87 2.35  77 2.36
  11  0.502  0.460  0.237-  65 2.34  43 2.34  74 2.36  33 2.81  35 2.96
  12  0.044  0.775  0.758-  47 2.29  73 2.35  70 2.35  44 2.38
  13  0.122  0.122  0.745-  58 2.21  61 2.33
  14  0.463  0.942  0.757-  49 2.28  29 2.84  31 2.93
  15  0.008  0.980  0.244-  41 2.12  50 2.29  25 2.83  27 2.96
  16  0.851  0.619  0.251-  67 2.26  66 2.26  76 2.28  75 2.33  36 2.86  34 2.98
  17  0.642  0.279  0.999-  43 2.02  71 2.07  49 2.08  60 2.08  66 2.10  53 2.17  33 2.85
  18  0.657  0.278  0.500-  75 1.96  46 1.98  57 2.00  68 2.06  52 2.06  62 2.08  36 2.84
  19  0.153  0.284  0.998-  48 1.98  78 1.99  55 2.05  83 2.07  41 2.07  61 2.16  33 2.77  38 2.79

  20  0.157  0.270  0.492-  87 1.97  50 1.98  45 1.99  80 2.07  64 2.13  58 2.13  28 2.78
  21  0.143  0.774  0.021-  42 2.05  67 2.05  84 2.05  73 2.10  77 2.14  47 2.17  37 2.82
  22  0.161  0.782  0.500-  51 1.97  86 2.02  44 2.03  70 2.06  81 2.08  76 2.10  31 2.84
  23  0.641  0.779  0.995-  65 2.00  85 2.02  59 2.04  79 2.05  72 2.10  54 2.10  38 2.84  25 2.85

  24  0.664  0.779  0.495-  74 2.00  63 2.04  56 2.04  69 2.05  88 2.12  82 2.12  27 2.78  36 2.86

  25  0.969  0.943  0.994-  61 1.85  54 1.88  72 1.93  67 1.94  47 1.94  41 1.95  15 2.83  30 2.84
                            23 2.85  34 2.89  26 2.95
  26  0.309  0.107  0.997-  47 1.89  49 1.90  42 1.93  43 1.96  41 1.98  48 1.99  29 2.86  33 2.87
                             5 2.95  25 2.95
  27  0.983  0.938  0.506-  58 1.83  69 1.87  76 1.92  44 1.94  63 1.99  50 2.06  24 2.78  32 2.88
                            36 2.88  28 2.91  15 2.96
  28  0.319  0.112  0.502-  50 1.86  52 1.91  45 1.93  44 1.94  51 1.95  46 2.00  20 2.78  35 2.89
                             5 2.91  27 2.91  31 2.95
  29  0.476  0.944  0.010-  84 1.88  42 1.89  79 1.89  59 1.92  49 1.99  53 2.00  14 2.84  26 2.86
                            38 2.95  30 2.99
  30  0.820  0.120  0.011-  53 1.86  60 1.86  54 1.89  55 1.96  61 1.96  59 1.98  25 2.84  37 2.86
                             8 2.89  29 2.99
  31  0.488  0.941  0.497-  81 1.91  51 1.91  88 1.91  56 1.92  62 1.94  46 1.96  22 2.84  32 2.91
                            40 2.91  14 2.93  28 2.95
  32  0.824  0.110  0.495-  63 1.92  62 1.93  58 1.93  56 1.93  57 1.94  64 2.02  27 2.88   8 2.89
                            31 2.91  39 2.92
  33  0.473  0.437  0.987-  48 1.87  43 1.89  78 1.91  65 1.93  71 1.99  85 2.05  19 2.77  11 2.81
                            38 2.84  17 2.85  26 2.87  34 2.95
  34  0.812  0.610  0.987-  73 1.84  65 1.88  72 1.89  71 1.89  66 1.91  67 1.99  25 2.89  37 2.89
                            33 2.95  16 2.98
  35  0.487  0.444  0.501-  68 1.89  74 1.91  82 1.92  87 1.93  52 1.98  45 2.01  40 2.86  36 2.88
                            28 2.89  11 2.96
  36  0.819  0.606  0.505-  75 1.83  70 1.86  68 1.89  76 1.91  69 1.95  74 2.03  39 2.84  18 2.84
                            24 2.86  16 2.86  27 2.88  35 2.88
  37  0.982  0.449  0.015-  83 1.90  55 1.91  73 1.91  66 1.93  77 1.95  60 1.97  21 2.82  30 2.86
                            38 2.89  34 2.89
  38  0.315  0.605  0.015-  78 1.80  83 1.88  85 1.90  79 1.95  77 2.02  84 2.04  19 2.79  23 2.84
                            33 2.84  37 2.89  29 2.95
  39  0.986  0.446  0.491-  80 1.86  57 1.86  64 1.91  86 1.96  75 1.99  70 2.03  36 2.84  40 2.89
                            32 2.92
  40  0.319  0.606  0.492-  81 1.90  87 1.93  86 1.94  82 1.95  80 1.99  88 1.99   3 2.83  35 2.86
                            39 2.89  31 2.91
  41  0.137  0.097  0.090-  25 1.95  26 1.98  19 2.07  15 2.12
  42  0.325  0.961  0.099-  29 1.89  26 1.93  21 2.05   5 2.27
  43  0.468  0.283  0.087-  33 1.89  26 1.96  17 2.02   5 2.24  11 2.34
  44  0.154  0.951  0.596-  27 1.94  28 1.94  22 2.03  12 2.38
  45  0.319  0.273  0.597-  28 1.93  20 1.99  35 2.01   4 2.28
  46  0.489  0.107  0.591-  31 1.96  18 1.98  28 2.00
  47  0.142  0.951  0.910-  26 1.89  25 1.94  21 2.17  12 2.29
  48  0.313  0.276  0.901-  33 1.87  19 1.98  26 1.99
  49  0.464  0.099  0.905-  26 1.90  29 1.99  17 2.08  14 2.28
  50  0.163  0.102  0.405-  28 1.86  20 1.98  27 2.06  15 2.29
  51  0.330  0.952  0.410-  31 1.91  28 1.95  22 1.97
  52  0.476  0.271  0.408-  28 1.91  35 1.98  18 2.06   5 2.13
  53  0.657  0.104  0.101-  30 1.86  29 2.00  17 2.17   6 2.37
  54  0.824  0.956  0.091-  25 1.88  30 1.89  23 2.10   1 2.36
  55  0.986  0.287  0.102-  37 1.91  30 1.96  19 2.05  10 2.31
  56  0.657  0.951  0.586-  31 1.92  32 1.93  24 2.04
  57  0.837  0.284  0.582-  39 1.86  32 1.94  18 2.00
  58  0.973  0.089  0.589-  27 1.83  32 1.93  20 2.13  13 2.21
  59  0.644  0.964  0.916-  29 1.92  30 1.98  23 2.04
  60  0.828  0.278  0.918-  30 1.86  37 1.97  17 2.08
  61  0.964  0.096  0.906-  25 1.85  30 1.96  19 2.16   8 2.26  13 2.33
  62  0.656  0.100  0.405-  32 1.93  31 1.94  18 2.08
  63  0.834  0.956  0.400-  32 1.92  27 1.99  24 2.04   1 2.31
  64  0.983  0.287  0.396-  39 1.91  32 2.02  20 2.13  10 2.14
  65  0.645  0.600  0.071-  34 1.88  33 1.93  23 2.00  11 2.34
  66  0.818  0.465  0.093-  34 1.91  37 1.93  17 2.10  16 2.26   6 2.31
  67  0.958  0.780  0.094-  25 1.94  34 1.99  21 2.05  16 2.26
  68  0.650  0.452  0.592-  36 1.89  35 1.89  18 2.06
  69  0.832  0.777  0.597-  27 1.87  36 1.95  24 2.05   2 2.26
  70  0.979  0.610  0.592-  36 1.86  39 2.03  22 2.06  12 2.35
  71  0.651  0.454  0.896-  34 1.89  33 1.99  17 2.07
  72  0.818  0.774  0.899-  34 1.89  25 1.93  23 2.10   2 2.20
  73  0.972  0.599  0.916-  34 1.84  37 1.91  21 2.10  12 2.35
  74  0.647  0.599  0.405-  35 1.91  24 2.00  36 2.03  11 2.36
  75  0.814  0.455  0.410-  36 1.83  18 1.96  39 1.99   6 2.33  16 2.33
  76  0.970  0.771  0.412-  36 1.91  27 1.92  22 2.10  16 2.28
  77  0.146  0.594  0.120-  37 1.95  38 2.02  21 2.14   9 2.32  10 2.36
  78  0.327  0.452  0.089-  38 1.80  33 1.91  19 1.99
  79  0.475  0.784  0.099-  29 1.89  38 1.95  23 2.05   9 2.38
  80  0.140  0.442  0.581-  39 1.86  40 1.99  20 2.07   3 2.33
  81  0.337  0.771  0.587-  40 1.90  31 1.91  22 2.08
  82  0.477  0.602  0.591-  35 1.92  40 1.95  24 2.12   3 2.32   2 2.37
  83  0.147  0.468  0.920-  38 1.88  37 1.90  19 2.07
  84  0.318  0.782  0.922-  29 1.88  38 2.04  21 2.05
  85  0.460  0.613  0.903-  38 1.90  23 2.02  33 2.05   3 2.28
  86  0.157  0.612  0.402-  40 1.94  39 1.96  22 2.02   9 2.31
  87  0.326  0.443  0.405-  35 1.93  40 1.93  20 1.97  10 2.35
  88  0.482  0.782  0.400-  31 1.91  40 1.99  24 2.12   1 2.32   9 2.36

  LATTYP: Found a hexagonal cell.
 ALAT       =    10.0190000534
 C/A-ratio  =     1.1196726572

  Lattice vectors:

 A1 = (  10.0190000534,   0.0000000000,   0.0000000000)
 A2 = (  -5.0095000267,   8.6767085668,   0.0000000000)
 A3 = (   0.0000000000,   0.0000000000,  11.2180004120)

Analysis of symmetry for initial positions (statically):
 Subroutine PRICEL returns:
 Original cell was already a primitive cell.

 Routine SETGRP: Setting up the symmetry group for a
 hexagonal supercell.

 Subroutine GETGRP returns: Found  1 space group operations
 (whereof  1 operations were pure point group operations)
 out of a pool of 24 trial point group operations.

The static configuration has the point symmetry C_1 .

Analysis of symmetry for dynamics (positions and initial velocities):
 Subroutine PRICEL returns:
 Original cell was already a primitive cell.

[...]

The dynamic configuration has the point symmetry C_1 .

[...]
   4      -0.011    -0.011     2.238    -0.090     2.237
   5       0.005     0.005     1.535    -0.049     1.535
   6      -0.016    -0.015     1.804    -0.084     1.803
   7       0.004     0.005     3.090    -0.186     3.089
   8       0.009     0.011     1.251    -0.072     1.249
   9      -0.013    -0.013     2.450    -0.074     2.450
  10      -0.011    -0.012     2.473    -0.073     2.474
  11       0.019     0.018     1.465    -0.092     1.467
  12       0.004     0.005     2.354    -0.136     2.354
  13       0.004     0.004     2.875    -0.122     2.875
  14       0.000     0.001     0.851    -0.051     0.850
  15       0.004     0.004     1.046    -0.038     1.046
  16       0.019     0.017     1.782    -0.048     1.783
  17       0.041     0.045    12.622     0.117    12.618
  18       0.081     0.083    13.510     0.157    13.509
  19       0.058     0.060    14.080     0.146    14.077
  20       0.069     0.072    13.300     0.139    13.297
  21       0.037     0.040    12.284     0.107    12.281
  22       0.070     0.072    13.108     0.145    13.106
  23       0.068     0.071    13.382     0.138    13.379
  24       0.050     0.053    12.130     0.126    12.127
  25     160.166   160.148    93.828  -137.906    93.847
  26     161.900   161.881    96.924  -140.333    96.943
  27     160.331   160.316    97.688  -138.155    97.703
  28     161.129   161.108    92.669  -139.377    92.690
  29     160.956   160.937    95.821  -139.026    95.840
  30     160.335   160.311    95.048  -138.109    95.072
  31     161.222   161.202    97.204  -139.485    97.224
  32     162.357   162.342   100.780  -140.866   100.795
  33     161.781   161.767    99.146  -139.942    99.160
  34     159.429   159.409    94.025  -136.823    94.045
  35     161.914   161.896    96.005  -140.418    96.024
  36     159.534   159.517    95.394  -136.900    95.411
  37     161.417   161.396    98.559  -139.492    98.580
  38     160.013   159.999    96.795  -137.566    96.809
  39     161.745   161.726    98.314  -139.980    98.334
  40     163.045   163.024   102.746  -141.735   102.767
  41       0.749     0.750     5.126    -0.634     5.125
  42       2.474     2.479     8.421    -2.471     8.415
  43       1.924     1.924     7.286    -1.887     7.286
  44       1.909     1.908     6.896    -1.888     6.897
  45       1.762     1.763     7.165    -1.696     7.163
  46       1.476     1.480     5.382    -1.467     5.379
  47       2.447     2.447     7.315    -2.497     7.315
  48       3.254     3.254    10.476    -3.250    10.476
  49       2.364     2.367     7.891    -2.357     7.888
  50       1.803     1.805     7.239    -1.744     7.237
  51       1.604     1.612     5.434    -1.629     5.426
  52       1.517     1.519     5.736    -1.497     5.734
  53       2.413     2.417     7.121    -2.473     7.118
  54       3.324     3.331     8.995    -3.430     8.989
  55       2.590     2.593     8.658    -2.593     8.655
  56       1.527     1.530     6.689    -1.468     6.686
  57       2.337     2.338     6.704    -2.412     6.703
  58       4.009     4.015    10.000    -4.180     9.993
  59       0.460     0.462     4.052    -0.362     4.050
  60       2.283     2.284     7.747    -2.276     7.746
[...]
  74       1.097     1.100     5.898    -0.998     5.895
  75       3.046     3.052     8.282    -3.140     8.276
  76       2.535     2.535     8.112    -2.540     8.111
  77       1.765     1.766     7.244    -1.701     7.242
  78       3.378     3.387     9.804    -3.472     9.795
  79       2.735     2.737     8.644    -2.763     8.642
  80       1.413     1.420     6.908    -1.332     6.901
  81       2.236     2.242     7.411    -2.259     7.405
  82       1.902     1.908     7.103    -1.879     7.097
  83       2.306     2.308     9.351    -2.216     9.349
  84       1.019     1.023     5.606    -0.927     5.602
  85       1.493     1.495     6.605    -1.416     6.604
  86       2.240     2.238     8.204    -2.195     8.206
  87       2.802     2.801     8.774    -2.813     8.774
  88       1.303     1.308     6.650    -1.205     6.644

 Dipolar hyperfine coupling parameters (MHz)
  ion      A_xx      A_yy      A_zz      A_xy      A_xz      A_yz
   1      -0.661    -0.756     1.417     0.192     0.026     0.019
   2      -0.565    -0.533     1.098     0.118     0.097     0.019
   3      -0.738    -1.112     1.851    -0.124     0.090    -0.100
   4      -1.071    -0.558     1.629     0.043    -0.028    -0.003
   5      -0.854    -0.830     1.684    -0.316    -0.040     0.125
   6      -0.740    -0.492     1.232     0.015    -0.058     0.059
   7      -0.766    -0.854     1.620    -0.265    -0.036     0.046
   8      -0.841    -1.010     1.851    -0.149     0.030     0.030
   9      -1.002    -0.526     1.528     0.019     0.028    -0.038
  10      -0.654    -0.852     1.506     0.174     0.023     0.022
  11      -0.729    -1.064     1.793     0.019     0.088     0.037
  12      -0.699    -0.427     1.126     0.035    -0.012    -0.004
  13      -0.592    -0.842     1.434     0.169     0.014     0.056
  14      -0.883    -0.931     1.814    -0.140    -0.103     0.008
  15      -0.665    -1.148     1.813    -0.015     0.029    -0.040
  16      -0.888    -0.898     1.786    -0.245    -0.038     0.010
  17       1.613     1.270    -2.882     0.024     0.209    -0.098
  18       1.434     1.625    -3.058     0.090    -0.142    -0.024
  19       1.498     1.506    -3.004     0.090    -0.309     0.199
  20       1.503     1.520    -3.023    -0.144     0.062    -0.159
  21       1.358     1.437    -2.795     0.226     0.237    -0.032
  22       1.578     1.427    -3.005     0.082    -0.139     0.076
  23       1.478     1.456    -2.934    -0.004    -0.256     0.217
  24       1.362     1.575    -2.938     0.010     0.147    -0.034
  25       0.476    -0.072    -0.404     0.760     0.004     0.145
  26      -1.005     0.646     0.359    -1.142    -1.362     0.076
  27       0.826    -0.899     0.073     0.717    -0.225    -0.193
  28      -0.666     0.291     0.375    -0.264    -0.084    -0.364
  29      -1.775     0.742     1.033    -0.658     0.371     0.706
  30      -0.327    -0.169     0.496     0.021     0.362     1.581
  31      -0.200    -1.486     1.686    -0.218    -0.552    -0.020
  32      -0.396    -0.464     0.860     0.975     0.295    -0.037
  33      -0.155    -1.081     1.236    -1.019     0.230     0.486
  34      -2.135     0.532     1.603     0.888    -0.760     0.011
  35      -0.965     0.332     0.633    -0.183     0.157    -0.215
  36       0.542    -1.001     0.459    -1.409    -0.146    -1.064
  37      -2.003     2.020    -0.018     0.794    -1.265     0.193
  38       0.467    -0.247    -0.220    -0.282    -0.148     0.466
  39      -0.818    -0.652     1.469    -0.234    -0.455    -0.025
  40      -0.280    -1.713     1.993     0.319    -0.788    -0.826
  41      -4.350     4.016     0.334    -4.022     2.650    -4.658
  42      -2.827     3.190    -0.363     5.254     0.703     3.239
  43       5.293    -4.437    -0.855     0.777    -4.424     2.018
  44      -3.799     1.547     2.253    -4.456    -2.316     3.813
  45       3.829    -4.931     1.102     0.180     4.457    -1.571
  46      -3.029     0.482     2.547     3.431    -1.733    -4.108
  47      -4.167     2.390     1.777    -5.525     0.488    -6.035
  48       4.107    -5.991     1.884    -0.514    -4.852    -1.178
  49      -3.943     3.802     0.141     3.234     3.359     3.616
  50      -3.063     3.918    -0.855    -4.020    -4.258     2.958
  51      -3.649     1.898     1.751     4.468    -2.989    -3.878
  52       3.994    -5.056     1.063    -0.959     4.295     0.540
  53      -4.105     3.009     1.096    -4.869     3.303    -2.467
  54      -1.342     0.825     0.517     6.306     4.788     3.567
  55       3.480    -6.890     3.410     0.790    -6.019    -0.447
  56      -2.313     1.611     0.703    -5.374    -1.814     5.095
  57       4.422    -5.933     1.511    -0.347     4.618     1.325
  58      -2.528     1.598     0.930     6.589    -2.780    -3.615
  59      -1.311     2.302    -0.991    -5.319     2.269    -2.841
  60       5.429    -5.284    -0.145    -0.302    -4.027     0.768
[...]
  74      -1.356     1.226     0.131    -4.145    -0.562     5.624
  75      -2.444     1.003     1.441     3.212    -0.060    -5.149
  76       7.055    -5.661    -1.394     0.252     3.727     0.084
  77      -4.324     3.691     0.633    -3.399     0.484    -4.798
  78      -1.733     0.829     0.904     6.497     3.614     3.798
  79       4.453    -6.650     2.197     2.983    -4.549     1.457
  80      -3.423     2.472     0.951    -5.092    -3.729     5.241
  81       6.270    -5.946    -0.324    -0.353     3.779    -0.782
  82      -2.697     2.323     0.374     4.818    -2.207    -5.248
  83      -3.599     6.216    -2.616    -5.892     0.858    -2.507
  84       5.165    -5.520     0.355    -1.664    -5.667    -2.433
  85      -1.679     0.822     0.858     3.797     4.219     3.123
  86      -4.672     1.491     3.180    -3.050    -3.250     4.692
  87      -3.730     1.453     2.277     4.330    -2.651    -4.213
  88       5.345    -5.440     0.096     0.678     5.528    -0.262

 Total hyperfine coupling parameters after diagonalization (MHz)
 (convention: |A_zz| > |A_xx| > |A_yy|)
  ion      A_xx      A_yy      A_zz     asymmetry (A_yy - A_xx)/ A_zz
   1       2.163     1.768     4.092      -0.097
   2       1.597     1.361     3.134      -0.075
   3       0.799     0.354     3.363      -0.132
   4       1.683     1.162     3.866      -0.135
   5       1.003     0.376     3.227      -0.194
   6       1.310     1.061     3.038      -0.082
   7       2.547     2.010     4.711      -0.114
   8       0.495     0.152     3.101      -0.111
   9       1.924     1.448     3.979      -0.120
  10       1.921     1.521     3.980      -0.101
  11       0.735     0.401     3.263      -0.103
  12       1.931     1.650     3.480      -0.081
  13       2.367     1.947     4.310      -0.098
  14      -0.200     0.082     2.668       0.106
  15       0.381    -0.103     2.860      -0.169
  16       1.134     0.645     3.569      -0.137
  17      13.888     9.723    14.241      -0.292
  18      14.910    10.446    15.170      -0.294
  19      15.519    11.043    15.671      -0.286
  20      14.665    10.268    14.958      -0.294
  21      13.459     9.472    13.912      -0.287
  22      14.500    10.095    14.722      -0.299
  23      14.838    10.419    14.880      -0.297
  24      13.494     9.184    13.703      -0.315
  25      93.491    93.187    94.862      -0.003
  26      97.385    94.773    98.670      -0.026
  27      97.714    96.536    98.859      -0.012
  28      92.742    91.927    93.399      -0.009
  29      96.258    93.808    97.454      -0.025
  30      94.744    93.581    96.892      -0.012
  31      96.914    95.698    99.061      -0.012
  32     101.258    99.365   101.761      -0.019
  33      99.656    97.330   100.494      -0.023
  34      94.803    91.513    95.821      -0.034
  35      96.250    95.023    96.798      -0.013
  36      96.036    93.201    96.995      -0.029
  37      99.159    95.828   100.752      -0.033
  38      96.838    96.100    97.488      -0.008
  39      97.822    97.288    99.890      -0.005
  40     102.243   100.863   105.196      -0.013
  41       2.292    -0.973    14.056      -0.232
  42       6.986     2.332    15.927      -0.292
  43       5.721     1.240    14.896      -0.301
  44       5.510     0.571    14.609      -0.338
  45       5.526     1.622    14.342      -0.272
  46       3.599     0.168    12.369      -0.277
  47       5.887    -0.847    16.905      -0.398
  48       8.847     4.125    18.457      -0.256
  49       6.094     1.900    15.671      -0.268
  50       5.719     0.644    15.347      -0.331
  51       3.553    -0.800    13.525      -0.322
  52       4.019     0.365    12.819      -0.285
  53       6.524     0.067    14.764      -0.437
  54       6.201     1.960    18.806      -0.226
  55       6.094     1.705    18.165      -0.242
  56       4.388     0.194    15.476      -0.271
  57       5.192     0.386    14.530      -0.331
  58       8.353     2.622    19.005      -0.302
  59       1.543    -1.085    11.691      -0.225
  60       5.583     2.339    15.316      -0.212
[...]
  74       4.542    -0.460    13.602      -0.368
  75       7.063     2.537    15.227      -0.297
  76       5.309     2.445    16.580      -0.173
  77       5.172     1.352    15.202      -0.251
  78       7.499     2.697    19.189      -0.250
  79       8.581     0.539    16.806      -0.479
  80       3.388     0.447    16.867      -0.174
  81       5.442     1.350    15.423      -0.265
  82       3.965     1.269    16.057      -0.168
  83       6.186     2.964    18.896      -0.171
  84       4.276    -1.989    14.518      -0.432
  85       4.338     1.394    14.080      -0.209
  86       5.789     2.027    16.802      -0.224
  87       6.836     2.581    16.907      -0.252
  88       3.399     1.036    15.497      -0.152

 stress matrix after NEB project (eV)
    -47.96315     -1.84748     -4.45535
     -1.84191    -46.14476      0.24977
     -4.45139      0.23863    -59.14014
  FORCES: max atom, RMS     3.298763    1.083431
  FORCE total and by dimension   10.163485    2.431205
  Stress total and by dimension   89.296973   59.140143

 total charge

[...]

 magnetization (x)

# of ion       s       p       d       tot
    1        0.002   0.000   0.000   0.002
    2        0.001   0.000   0.000   0.002
    3        0.001   0.000   0.000   0.002
    4        0.002  -0.000   0.000   0.002
    5        0.001   0.000   0.000   0.001
    6        0.001  -0.000   0.000   0.001
    7        0.002   0.000   0.000   0.003
    8        0.001   0.000   0.000   0.001
    9        0.002  -0.000   0.000   0.002
   10        0.002  -0.000   0.000   0.002
   11        0.001   0.001   0.000   0.002
   12        0.002   0.000   0.000   0.002
   13        0.002   0.000   0.000   0.002
   14        0.001   0.000   0.000   0.001
   15        0.001   0.000   0.000   0.001
   16        0.001   0.001   0.000   0.002
   17        0.007   0.002   0.001   0.010
   18        0.007   0.003   0.001   0.011
   19        0.008   0.002   0.001   0.011
   20        0.007   0.003   0.001   0.012
   21        0.007   0.002   0.001   0.010
   22        0.007   0.003   0.001   0.011
   23        0.007   0.003   0.001   0.011
   24        0.007   0.002   0.001   0.010
   25        0.015   0.030   2.737   2.782
   26        0.015   0.029   2.773   2.817
   27        0.015   0.030   2.742   2.787
   28        0.014   0.028   2.758   2.800
   29        0.015   0.030   2.755   2.800
   30        0.015   0.030   2.741   2.786
   31        0.016   0.030   2.760   2.806
   32        0.016   0.030   2.783   2.830
   33        0.016   0.030   2.771   2.817
   34        0.015   0.031   2.722   2.768
   35        0.015   0.028   2.774   2.817
   36        0.015   0.030   2.724   2.769
   37        0.016   0.031   2.762   2.809
   38        0.015   0.031   2.735   2.781
   39        0.016   0.029   2.770   2.814
   40        0.017   0.030   2.797   2.844
   41        0.002   0.008   0.000   0.010
   42        0.002   0.037   0.000   0.039
   43        0.002   0.028   0.000   0.030
   44        0.002   0.028   0.000   0.030
   45        0.002   0.025   0.000   0.027
   46        0.001   0.021   0.000   0.023
   47        0.002   0.038   0.000   0.040
   48        0.003   0.050   0.000   0.053
   49        0.002   0.036   0.000   0.038
   50        0.002   0.026   0.000   0.028
   51        0.002   0.024   0.000   0.025
   52        0.002   0.022   0.000   0.023
   53        0.002   0.037   0.000   0.039
   54        0.002   0.053   0.000   0.055
   55        0.002   0.039   0.000   0.041
   56        0.002   0.021   0.000   0.023
   57        0.002   0.036   0.000   0.038
   58        0.002   0.064   0.000   0.067
   59        0.001   0.003   0.000   0.005
   60        0.002   0.034   0.000   0.036
[...]
   74        0.002   0.014   0.000   0.016
   75        0.002   0.048   0.000   0.050
   76        0.002   0.039   0.000   0.041
   77        0.002   0.025   0.000   0.027
   78        0.002   0.052   0.000   0.055
   79        0.002   0.042   0.000   0.044
   80        0.002   0.018   0.000   0.021
   81        0.002   0.033   0.000   0.036
   82        0.002   0.028   0.000   0.030
   83        0.003   0.033   0.000   0.036
   84        0.002   0.013   0.000   0.014
   85        0.002   0.021   0.000   0.022
   86        0.002   0.033   0.000   0.035
   87        0.002   0.043   0.000   0.045
   88        0.002   0.017   0.000   0.019
tot          0.421   2.043  44.113  46.577