 vasp.5.4.4.18Apr17-6-g9f103f2a35 (build Dec 02 2020 12:53:39) complex

 executed on             LinuxIFC date 2021.08.02  18:03:38

 INCAR:
 POTCAR:    PAW_PBE Na_pv 19Sep2006
 POTCAR:    PAW_PBE Mg_pv 13Apr2007
 POTCAR:    PAW_PBE Mn_pv 02Aug2007
 POTCAR:    PAW_PBE O 08Apr2002

 POTCAR:    PAW_PBE Na_pv 19Sep2006
   VRHFIN =Na: p6s1

   TITEL  = PAW_PBE Na_pv 19Sep2006
   POMASS =   22.990; ZVAL   =    7.000    mass and valenz
   ENMAX  =  259.561; ENMIN  =  194.671 eV

 POTCAR:    PAW_PBE Mg_pv 13Apr2007
   VRHFIN =Mg: p6s2

   TITEL  = PAW_PBE Mg_pv 13Apr2007
   POMASS =   24.305; ZVAL   =    8.000    mass and valenz
   ENMAX  =  403.929; ENMIN  =  302.947 eV

 POTCAR:    PAW_PBE Mn_pv 02Aug2007
   VRHFIN =Mn: 3p4s3d

   TITEL  = PAW_PBE Mn_pv 02Aug2007
   POMASS =   54.938; ZVAL   =   13.000    mass and valenz
   ENMAX  =  269.864; ENMIN  =  202.398 eV

 POTCAR:    PAW_PBE O 08Apr2002
   VRHFIN =O: s2p4

   TITEL  = PAW_PBE O 08Apr2002
   POMASS =   16.000; ZVAL   =    6.000    mass and valenz
   ENMAX  =  400.000; ENMIN  =  300.000 eV

 Optimization of the real space projectors (new method)

 maximal supplied QI-value         = 17.01
 optimisation between [QCUT,QGAM] = [ 10.20, 20.41] = [ 29.16,116.64] Ry
 Optimized for a Real-space Cutoff    1.30 Angstroem

   l    n(q)    QCUT    max X(q) W(low)/X(q) W(high)/X(q)  e(spline)
   1      7    10.205     4.940    0.23E-03    0.84E-03    0.11E-06
   1      7    10.205     6.253    0.40E-03    0.13E-02    0.18E-06
   0      8    10.205    37.438    0.23E-03    0.37E-03    0.42E-07
   0      8    10.205     9.606    0.16E-03    0.26E-03    0.31E-07
 Optimization of the real space projectors (new method)

[...]

   l    n(q)    QCUT    max X(q) W(low)/X(q) W(high)/X(q)  e(spline)
   1      8    10.239     3.658    0.23E-03    0.30E-03    0.98E-07
   1      8    10.239     5.612    0.32E-03    0.65E-03    0.21E-06
   2      7    10.239    55.373    0.42E-03    0.45E-03    0.65E-07
   2      7    10.239    50.863    0.43E-03    0.48E-03    0.67E-07
   0      8    10.239    79.536    0.11E-03    0.21E-03    0.56E-07
   0      8    10.239    38.668    0.96E-04    0.19E-03    0.52E-07
 Optimization of the real space projectors (new method)

 maximal supplied QI-value         = 24.76
 optimisation between [QCUT,QGAM] = [ 10.15, 20.30] = [ 28.85,115.39] Ry
 Optimized for a Real-space Cutoff    1.38 Angstroem

   l    n(q)    QCUT    max X(q) W(low)/X(q) W(high)/X(q)  e(spline)
   0      8    10.150    20.381    0.22E-03    0.32E-03    0.29E-06
   0      8    10.150    15.268    0.23E-03    0.35E-03    0.30E-06
   1      8    10.150     5.964    0.46E-03    0.53E-03    0.21E-06
   1      8    10.150     5.382    0.38E-03    0.45E-03    0.19E-06
  PAW_PBE Na_pv 19Sep2006               :
  PAW_PBE Mg_pv 13Apr2007               :
  PAW_PBE Mn_pv 02Aug2007               :
  PAW_PBE O 08Apr2002                   :

 POSCAR: Na Mg Mn  O
  positions in cartesian coordinates

 METAGGA = SCAN     LMAXTAU =  6    LMIXTAU =  F

 VTST: version 3.2, (02/03/18)

 CHAIN: initializing optimizer

 OPT: Using VASP Dynamics algorithm
 CHAIN: Read ICHAIN            0

 POSCAR: Na Mg Mn  O
  positions in cartesian coordinates

 ion  position               nearest neighbor table
   1  0.920  0.626  0.269-  76 2.01  75 2.25  67 2.32  36 2.71
   2  0.987  0.414  0.750-  60 2.18  57 2.24  73 2.28  70 2.36  37 2.82  39 2.90
   3  0.538  0.250  0.742-  46 2.30  45 2.33
   4  0.505  0.896  0.735-  81 2.17  56 2.28  31 2.74  29 2.95
   5  0.826  0.287  0.246-  66 2.21  75 2.25
   6  0.041  0.052  0.257-  41 2.25  50 2.28  63 2.34
   7  0.069  0.757  0.748-  44 2.32  47 2.33  70 2.35
   8  0.177  0.096  0.767-  48 2.27  61 2.32
   9  0.364  0.769  0.236-  79 2.24  42 2.31
  10  0.402  0.088  0.255-  51 2.16  52 2.31  42 2.38  28 2.80  26 2.95
  11  0.685  0.906  0.259-  88 2.26
  12  0.843  0.078  0.738-  56 2.27  58 2.28  32 2.76  30 2.96
  13  0.706  0.601  0.758-  71 2.27  72 2.29
  14  0.357  0.528  0.751-  82 2.27  85 2.31  80 2.37  40 2.95  38 2.98
  15  0.535  0.433  0.247-  65 2.31  78 2.32  74 2.35  33 2.82  35 2.86
  16  0.208  0.432  0.261-  86 2.28  87 2.34  77 2.37
  17  0.693  0.259  0.993-  43 1.98  66 2.03  71 2.04  60 2.06  53 2.07  49 2.10  33 2.86
  18  0.695  0.263  0.497-  57 2.01  52 2.03  62 2.07  68 2.08  46 2.08  75 2.08  32 2.84
  19  0.176  0.243  0.006-  83 1.97  61 1.99  55 2.04  41 2.07  78 2.11  48 2.13  30 2.79
  20  0.182  0.251  0.509-  50 1.98  58 2.02  80 2.03  64 2.14  45 2.16  87 2.20  32 2.82
  21  0.203  0.749  0.997-  84 2.01  77 2.05  73 2.05  42 2.05  47 2.09  67 2.13  38 2.80  29 2.81
                            37 2.82
  22  0.191  0.757  0.500-  81 2.01  51 2.05  86 2.05  70 2.06  44 2.06  76 2.11  39 2.79
  23  0.680  0.753  0.997-  85 1.94  79 1.98  59 2.02  54 2.02  72 2.09  65 2.11  29 2.77  38 2.82

  24  0.685  0.763  0.504-  82 1.98  56 1.99  69 2.02  63 2.07  88 2.09  74 2.10  40 2.81  31 2.85

  25  0.018  0.913  0.005-  67 1.88  41 1.90  47 1.91  72 1.93  61 1.95  54 1.98  34 2.82  30 2.94
                            26 2.96
  26  0.359  0.085  0.995-  48 1.88  49 1.89  43 1.90  42 1.92  47 1.97  41 2.03  33 2.85  29 2.90
                            10 2.95  25 2.96
  27  0.023  0.920  0.505-  76 1.82  69 1.89  63 1.94  58 1.94  50 1.98  44 2.06  36 2.85  28 2.91
                            32 2.98
  28  0.357  0.089  0.501-  46 1.82  51 1.88  50 1.88  44 1.89  45 1.98  52 2.02  10 2.80  31 2.83
                            35 2.89  27 2.91
  29  0.527  0.919  0.997-  59 1.84  42 1.86  49 1.96  53 1.98  84 2.00  79 2.02  23 2.77  21 2.81
                            30 2.85  26 2.90  38 2.94   4 2.95
  30  0.855  0.089  0.002-  61 1.86  55 1.86  54 1.88  53 1.91  60 2.01  59 2.01  19 2.79  29 2.85
                            37 2.92  25 2.94  12 2.96
  31  0.522  0.928  0.492-  88 1.83  81 1.89  56 1.90  62 1.94  51 1.95  46 1.97   4 2.74  28 2.83
                            24 2.85  40 2.89  32 2.92
  32  0.859  0.099  0.492-  63 1.85  64 1.86  62 1.87  58 1.95  57 1.97  56 2.04  12 2.76  20 2.82
                            18 2.84  31 2.92  39 2.92  27 2.98
  33  0.518  0.414  0.996-  65 1.88  85 1.89  43 1.94  71 1.94  48 1.95  78 1.99  15 2.82  26 2.85
                            38 2.85  17 2.86  34 2.97
  34  0.860  0.588  1.000-  66 1.84  67 1.91  72 1.92  65 1.94  73 2.02  71 2.05  25 2.82  37 2.86
                            33 2.97
  35  0.524  0.423  0.502-  45 1.81  87 1.89  52 1.90  74 1.91  68 1.96  82 1.97  36 2.80  15 2.86
                            28 2.89  40 2.91
  36  0.847  0.592  0.504-  68 1.86  69 1.90  74 1.91  76 1.95  70 1.98  75 2.01   1 2.71  35 2.80
                            27 2.85  39 2.93
  37  0.026  0.425  0.999-  73 1.84  83 1.86  77 1.88  60 1.93  66 1.99  55 2.04  21 2.82   2 2.82
                            34 2.86  38 2.87  30 2.92
  38  0.356  0.580  0.013-  77 1.88  83 1.90  85 1.92  84 1.92  78 1.94  79 1.95  21 2.80  23 2.82
                            33 2.85  37 2.87  29 2.94  14 2.98
  39  0.027  0.436  0.493-  75 1.85  86 1.87  70 1.89  80 1.92  64 1.96  57 2.01  22 2.79  40 2.90
                             2 2.90  32 2.92  36 2.93
  40  0.361  0.595  0.495-  86 1.87  80 1.88  87 1.90  81 1.91  82 1.91  88 1.94  24 2.81  31 2.89
                            39 2.90  35 2.91  14 2.95
  41  0.183  0.067  0.097-  25 1.90  26 2.03  19 2.07   6 2.25
  42  0.377  0.933  0.086-  29 1.86  26 1.92  21 2.05   9 2.31  10 2.38
  43  0.518  0.248  0.085-  26 1.90  33 1.94  17 1.98
  44  0.205  0.936  0.601-  28 1.89  27 2.06  22 2.06   7 2.32
  45  0.384  0.268  0.594-  35 1.81  28 1.98  20 2.16   3 2.33
  46  0.510  0.087  0.588-  28 1.82  31 1.97  18 2.08   3 2.30
  47  0.180  0.921  0.910-  25 1.91  26 1.97  21 2.09   7 2.33
  48  0.356  0.242  0.906-  26 1.88  33 1.95  19 2.13   8 2.27
  49  0.511  0.075  0.902-  26 1.89  29 1.96  17 2.10
  50  0.196  0.090  0.417-  28 1.88  20 1.98  27 1.98   6 2.28
  51  0.358  0.936  0.405-  28 1.88  31 1.95  22 2.05  10 2.16
  52  0.522  0.266  0.405-  35 1.90  28 2.02  18 2.03  10 2.31
  53  0.692  0.085  0.093-  30 1.91  29 1.98  17 2.07
  54  0.852  0.927  0.089-  30 1.88  25 1.98  23 2.02
  55  0.001  0.244  0.099-  30 1.86  37 2.04  19 2.04
  56  0.680  0.934  0.590-  31 1.90  24 1.99  32 2.04  12 2.27   4 2.28
  57  0.866  0.264  0.593-  32 1.97  39 2.01  18 2.01   2 2.24
  58  0.002  0.075  0.595-  27 1.94  32 1.95  20 2.02  12 2.28
  59  0.681  0.927  0.904-  29 1.84  30 2.01  23 2.02
  60  0.872  0.263  0.901-  37 1.93  30 2.01  17 2.06   2 2.18
  61  0.005  0.073  0.916-  30 1.86  25 1.95  19 1.99   8 2.32
  62  0.695  0.086  0.402-  32 1.87  31 1.94  18 2.07
  63  0.869  0.941  0.415-  32 1.85  27 1.94  24 2.07   6 2.34
  64  0.010  0.260  0.403-  32 1.86  39 1.96  20 2.14
  65  0.682  0.568  0.085-  33 1.88  34 1.94  23 2.11  15 2.31
  66  0.860  0.435  0.090-  34 1.84  37 1.99  17 2.03   5 2.21
  67  0.020  0.753  0.090-  25 1.88  34 1.91  21 2.13   1 2.32
  68  0.694  0.437  0.597-  36 1.86  35 1.96  18 2.08
  69  0.859  0.760  0.592-  27 1.89  36 1.90  24 2.02
  70  0.012  0.580  0.592-  39 1.89  36 1.98  22 2.06   7 2.35   2 2.36
  71  0.684  0.428  0.898-  33 1.94  17 2.04  34 2.05  13 2.27
  72  0.863  0.752  0.909-  34 1.92  25 1.93  23 2.09  13 2.29
  73  0.025  0.575  0.905-  37 1.84  34 2.02  21 2.05   2 2.28
  74  0.684  0.582  0.409-  35 1.91  36 1.91  24 2.10  15 2.35
  75  0.875  0.442  0.404-  39 1.85  36 2.01  18 2.08   5 2.25   1 2.25
  76  0.007  0.762  0.413-  27 1.82  36 1.95   1 2.01  22 2.11
  77  0.188  0.570  0.096-  38 1.88  37 1.88  21 2.05  16 2.37
  78  0.362  0.418  0.103-  38 1.94  33 1.99  19 2.11  15 2.32
  79  0.520  0.751  0.101-  38 1.95  23 1.98  29 2.02   9 2.24
  80  0.195  0.443  0.582-  40 1.88  39 1.92  20 2.03  14 2.37
  81  0.371  0.763  0.584-  31 1.89  40 1.91  22 2.01   4 2.17
  82  0.515  0.588  0.591-  40 1.91  35 1.97  24 1.98  14 2.27
  83  0.191  0.423  0.923-  37 1.86  38 1.90  19 1.97
  84  0.369  0.736  0.906-  38 1.92  29 2.00  21 2.01
  85  0.513  0.577  0.916-  33 1.89  38 1.92  23 1.94  14 2.31
  86  0.197  0.584  0.407-  40 1.87  39 1.87  22 2.05  16 2.28
  87  0.374  0.438  0.410-  35 1.89  40 1.90  20 2.20  16 2.34
  88  0.513  0.770  0.403-  31 1.83  40 1.94  24 2.09  11 2.26

  LATTYP: Found a hexagonal cell.
 ALAT       =    10.0190000534
 C/A-ratio  =     1.1196726572

  Lattice vectors:

 A1 = (  10.0190000534,   0.0000000000,   0.0000000000)
 A2 = (  -5.0095000267,   8.6767085668,   0.0000000000)
 A3 = (   0.0000000000,   0.0000000000,  11.2180004120)

Analysis of symmetry for initial positions (statically):
 Subroutine PRICEL returns:
 Original cell was already a primitive cell.

 Routine SETGRP: Setting up the symmetry group for a
 hexagonal supercell.

 Subroutine GETGRP returns: Found  1 space group operations
 (whereof  1 operations were pure point group operations)
 out of a pool of 24 trial point group operations.

The static configuration has the point symmetry C_1 .

Analysis of symmetry for dynamics (positions and initial velocities):
 Subroutine PRICEL returns:
 Original cell was already a primitive cell.

[...]

[...]
   4       0.004     0.003     0.831    -0.042     0.833
   5       0.011     0.012     2.516    -0.109     2.516
   6       0.011     0.011     2.578    -0.123     2.578
   7      -0.014    -0.014     1.732    -0.092     1.732
   8      -0.006    -0.007     2.298    -0.085     2.298
   9      -0.007    -0.008     2.828    -0.094     2.828
  10       0.015     0.014     1.334    -0.057     1.334
  11       0.003     0.003     2.967    -0.120     2.967
  12      -0.005    -0.005     0.386    -0.034     0.386
  13      -0.002    -0.002     2.689    -0.097     2.689
  14       0.026     0.026     2.436    -0.117     2.437
  15       0.010     0.010     1.098    -0.063     1.099
  16      -0.011    -0.011     2.640    -0.092     2.640
  17       0.062     0.064    12.337     0.135    12.335
  18       0.052     0.055    12.215     0.137    12.211
  19       0.060     0.063    13.169     0.141    13.167
  20       0.056     0.060    13.691     0.111    13.687
  21       0.053     0.057    13.040     0.131    13.036
  22       0.053     0.056    13.579     0.141    13.576
  23       0.082     0.085    13.391     0.142    13.389
  24       0.074     0.076    13.829     0.144    13.826
  25     161.491   161.475    98.202  -139.676    98.218
  26     161.430   161.415    97.764  -139.596    97.779
  27     161.804   161.787   100.022  -139.961   100.038
  28     159.619   159.596    93.778  -137.038    93.801
  29     161.152   161.134    97.157  -139.254    97.175
  30     160.356   160.334    94.187  -138.178    94.209
  31     160.051   160.025    96.532  -137.658    96.558
  32     159.646   159.621    94.331  -137.317    94.355
  33     161.677   161.664    97.570  -139.983    97.583
  34     162.061   162.036   101.217  -140.335   101.242
  35     159.186   159.169    94.908  -136.485    94.925
  36     160.715   160.700    99.755  -138.566    99.770
  37     160.042   160.021    97.398  -137.756    97.419
  38     160.306   160.288    96.592  -138.133    96.609
  39     159.891   159.873    95.550  -137.488    95.568
  40     159.949   159.933    99.520  -137.459    99.535
  41       1.847     1.848     6.932    -1.814     6.931
  42       3.051     3.055     7.760    -3.175     7.756
  43       2.216     2.219     8.444    -2.158     8.441
  44       1.375     1.381     6.802    -1.284     6.796
  45       3.361     3.363     9.115    -3.459     9.113
  46       3.421     3.430     8.822    -3.552     8.813
  47       1.149     1.154     5.151    -1.108     5.147
  48       3.270     3.272     9.090    -3.352     9.088
  49       1.575     1.581     6.340    -1.556     6.334
  50       2.748     2.748     8.180    -2.787     8.180
  51       2.774     2.776     8.615    -2.797     8.613
  52       1.239     1.240     5.040    -1.208     5.039
  53       1.759     1.762     6.941    -1.708     6.938
  54       1.519     1.524     5.335    -1.537     5.330
  55       1.932     1.935     7.467    -1.886     7.463
  56       1.135     1.135     6.018    -1.024     6.017
  57       1.167     1.167     6.380    -1.033     6.381
  58       1.637     1.639     6.233    -1.597     6.232
  59       3.591     3.592     9.743    -3.685     9.742
  60       1.851     1.850     6.451    -1.837     6.452
[...]
  74       3.029     3.035     9.198    -3.065     9.192
  75       2.600     2.604     8.010    -2.630     8.006
  76       3.716     3.722     9.960    -3.837     9.954
  77       3.214     3.213     9.028    -3.289     9.030
  78       2.152     2.158     7.369    -2.151     7.363
  79       1.426     1.432     6.632    -1.348     6.627
  80       2.061     2.064     6.125    -2.114     6.122
  81       2.104     2.104     7.659    -2.069     7.659
  82       1.982     1.984     6.389    -1.994     6.387
  83       2.089     2.094     6.171    -2.156     6.166
  84       1.320     1.319     6.717    -1.203     6.718
  85       2.239     2.241     7.155    -2.259     7.153
  86       2.813     2.813     7.744    -2.902     7.744
  87       2.697     2.704     7.850    -2.766     7.843
  88       2.981     2.983     8.585    -3.048     8.583

 Dipolar hyperfine coupling parameters (MHz)
  ion      A_xx      A_yy      A_zz      A_xy      A_xz      A_yz
   1      -1.036    -0.782     1.817    -0.248    -0.177    -0.144
   2      -0.928    -0.933     1.861    -0.218     0.001    -0.061
   3      -0.967    -0.564     1.532    -0.034     0.055    -0.038
   4      -1.060    -0.830     1.890    -0.102     0.089     0.047
   5      -0.769    -0.446     1.215    -0.068    -0.024    -0.033
   6      -0.535    -0.978     1.513    -0.173     0.011    -0.036
   7      -0.712    -0.524     1.236    -0.001     0.014     0.032
   8      -0.591    -0.782     1.374     0.185     0.057    -0.060
   9      -1.047    -0.565     1.611    -0.005    -0.076     0.036
  10      -0.946    -0.956     1.902    -0.255    -0.016    -0.082
  11      -0.636    -0.790     1.426     0.180    -0.114     0.049
  12      -0.855    -1.052     1.907     0.011    -0.052    -0.032
  13      -0.744    -0.875     1.620     0.243    -0.039    -0.022
  14      -0.656    -1.137     1.792    -0.148    -0.036    -0.031
  15      -0.817    -1.042     1.860     0.012     0.052     0.033
  16      -0.678    -0.924     1.602     0.167    -0.055     0.062
  17       1.516     1.399    -2.915     0.107     0.039     0.019
  18       1.412     1.483    -2.894     0.013    -0.182     0.086
  19       1.391     1.592    -2.983     0.034    -0.045     0.064
  20       1.354     1.554    -2.909    -0.073     0.073     0.019
  21       1.490     1.493    -2.983    -0.037     0.069    -0.034
  22       1.490     1.469    -2.959    -0.011    -0.071     0.040
  23       1.490     1.604    -3.094     0.062    -0.081     0.001
  24       1.615     1.392    -3.007    -0.108     0.131    -0.065
  25      -1.866    -0.329     2.196     0.624    -1.185    -0.334
  26      -1.353    -0.075     1.428     0.426    -0.655    -0.027
  27      -0.586    -1.938     2.524     0.701     0.608    -0.582
  28      -0.161     0.332    -0.171    -0.061    -0.605     0.274
  29      -0.128     0.611    -0.483     0.902     2.286    -0.174
  30      -0.061    -0.350     0.412     0.773     1.127    -1.062
  31       0.400    -0.973     0.573    -0.391    -0.789    -1.055
  32      -0.114    -1.321     1.435     0.953    -0.678     0.884
  33       0.265    -1.749     1.484    -0.360    -0.047     0.548
  34      -1.055    -0.934     1.989    -0.641    -1.475     1.511
  35       1.262    -0.575    -0.686     0.479    -0.692     1.817
  36       0.499    -0.987     0.488    -0.067     0.395     0.262
  37      -1.317     0.608     0.709     0.275    -1.227     0.066
  38      -0.653    -0.239     0.892    -1.482     0.442     0.722
  39      -1.940     1.342     0.598    -0.436     0.805    -0.066
  40      -0.760    -1.077     1.838     0.125    -0.322     0.491
  41      -1.534     0.754     0.779    -5.483     1.729    -4.114
  42      -3.176     2.467     0.710     4.667     2.240     3.711
  43       4.803    -5.030     0.227     0.068    -5.347    -1.037
  44      -2.379     2.166     0.213    -5.185    -2.174     4.271
  45       5.763    -6.160     0.397    -0.060     3.496     1.962
  46      -4.383     3.429     0.954     3.286    -3.780    -4.069
  47      -2.376     1.912     0.464    -4.597     3.719    -2.950
  48       4.121    -6.110     1.989     1.493    -5.010     0.886
  49      -4.153     3.284     0.869     5.686     3.664     4.915
  50      -2.988    -0.337     3.325    -3.059    -2.139     4.555
  51      -3.679     2.976     0.703     4.237    -0.445    -4.867
  52       3.870    -4.104     0.235     0.270     4.847    -1.083
  53      -3.254     2.538     0.716    -5.267     2.131    -5.432
  54      -2.727    -0.277     3.004     4.884     1.839     5.178
  55       5.371    -5.501     0.130    -1.208    -3.503    -1.775
  56      -2.017     3.285    -1.267    -3.855    -3.650     2.643
  57       5.667    -3.539    -2.128    -0.108     3.673    -0.539
  58      -0.837     1.736    -0.899     5.606    -2.317    -2.357
  59      -3.752     3.241     0.511    -4.881     4.375    -2.727
  60       4.892    -4.954     0.062    -0.599    -4.231    -0.541
[...]
  74      -3.155     2.813     0.342    -4.889    -5.196     2.718
  75      -4.913     5.439    -0.526     3.110    -2.439    -3.396
  76       5.732    -6.646     0.913    -0.971     5.806    -2.521
  77      -4.844     3.631     1.213    -3.721     1.425    -4.108
  78      -2.308     0.538     1.771     4.823     2.778     3.474
  79       4.629    -5.179     0.550    -0.594    -4.102     0.752
  80      -3.792     2.490     1.302    -4.296    -1.396     4.763
  81       5.715    -5.649    -0.066    -0.284     4.635     1.061
  82      -1.904     0.847     1.056     4.299    -3.705    -3.525
  83      -5.010     2.502     2.508    -2.942     1.694    -5.420
  84       5.629    -4.907    -0.723    -1.057    -3.249     1.090
  85      -1.701     0.312     1.389     4.873     2.919     3.980
  86      -4.347     2.875     1.472    -4.987    -2.014     4.686
  87      -2.671     1.922     0.748     5.893    -2.438    -3.619
  88       5.842    -6.015     0.173     1.558     4.158    -1.319

 Total hyperfine coupling parameters after diagonalization (MHz)
 (convention: |A_zz| > |A_xx| > |A_yy|)
  ion      A_xx      A_yy      A_zz     asymmetry (A_yy - A_xx)/ A_zz
   1       0.550    -0.024     3.015      -0.190
   2       0.341    -0.094     2.917      -0.149
   3       2.481     2.072     4.577      -0.089
   4      -0.269     0.041     2.726       0.114
   5       2.083     1.733     3.732      -0.094
   6       2.103     1.540     4.092      -0.138
   7       1.207     1.020     2.968      -0.063
   8       1.820     1.400     3.675      -0.114
   9       2.263     1.779     4.442      -0.109
  10       0.637     0.127     3.238      -0.158
  11       2.447     2.054     4.401      -0.089
  12      -0.666    -0.470     2.294       0.086
  13       2.130     1.627     4.309      -0.117
  14       1.823     1.258     4.230      -0.134
  15       0.281     0.055     2.959      -0.076
  16       2.045     1.629     4.244      -0.098
  17      13.670     9.420    13.915      -0.305
  18      13.629     9.307    13.697      -0.316
  19      14.553    10.183    14.765      -0.296
  20      15.019    10.777    15.265      -0.278
  21      14.491    10.052    14.566      -0.305
  22      15.041    10.615    15.073      -0.294
  23      14.853    10.294    15.020      -0.304
  24      15.174    10.814    15.490      -0.281
  25      97.943    95.895   100.816      -0.020
  26      97.805    96.170    99.363      -0.016
  27      99.716    97.679   102.721      -0.020
  28      93.959    93.010    94.436      -0.010
  29      97.749    94.412    99.364      -0.034
  30      94.763    92.225    95.638      -0.027
  31      96.878    94.808    97.988      -0.021
  32      94.749    92.173    96.144      -0.027
  33      97.896    95.687    99.166      -0.022
  34      99.670    99.582   104.475      -0.001
  35      96.054    92.299    96.423      -0.039
  36      99.916    98.726   100.668      -0.012
  37      98.052    95.493    98.711      -0.026
  38      97.440    94.452    97.936      -0.031
  39      96.345    93.349    97.010      -0.031
  40      98.812    98.308   101.486      -0.005
  41       5.361     0.653    14.780      -0.319
  42       5.807     1.944    15.517      -0.249
  43       5.467     3.053    16.802      -0.144
  44       4.279     0.962    15.147      -0.219
  45       8.367     2.323    16.649      -0.363
  46       6.967     2.319    17.154      -0.271
  47       3.299    -0.701    12.842      -0.311
  48       7.591     2.382    17.291      -0.301
  49       3.418    -1.036    16.620      -0.268
  50       5.712     3.077    15.752      -0.167
  51       6.937     2.297    16.605      -0.279
  52       2.572     0.262    12.282      -0.188
  53       4.029     0.379    16.406      -0.222
  54       3.691    -1.616    13.915      -0.381
  55       6.777     1.017    14.596      -0.395
  56       4.227     0.509    13.315      -0.279
  57       3.275     2.353    13.514      -0.068
  58       4.077     0.896    13.723      -0.232
  59       8.707     2.385    18.135      -0.349
  60       4.270     1.281    13.806      -0.217
[...]
  74       8.067     1.610    17.899      -0.361
  75       6.130     1.766    16.120      -0.271
  76       7.516     2.485    19.861      -0.253
  77       7.407     2.782    16.901      -0.274
  78       5.722     1.445    14.922      -0.287
  79       4.667     1.350    13.863      -0.239
  80       4.085    -0.010    14.289      -0.287
  81       5.360     1.666    15.951      -0.232
  82       3.877     1.112    14.172      -0.195
  83       3.484     0.135    14.878      -0.225
  84       4.741     1.537    13.877      -0.231
  85       4.863     1.468    15.127      -0.224
  86       5.747     0.833    16.651      -0.295
  87       6.113     1.144    16.272      -0.305
  88       7.305     1.778    16.665      -0.332

 stress matrix after NEB project (eV)
    -43.07446      1.08197     -1.72718
      1.06821    -38.80264      1.24709
     -1.71511      1.25564    -48.41474
  FORCES: max atom, RMS     1.965663    1.019963
  FORCE total and by dimension    9.568101    1.856155
  Stress total and by dimension   75.606938   48.414742

 total charge

[...]

 magnetization (x)

# of ion       s       p       d       tot
    1        0.001   0.001   0.000   0.001
    2        0.001   0.000   0.000   0.001
    3        0.002   0.000   0.000   0.003
    4        0.001   0.000   0.000   0.001
    5        0.002   0.001   0.000   0.002
    6        0.002   0.000   0.000   0.002
    7        0.001  -0.000   0.000   0.001
    8        0.002   0.000   0.000   0.002
    9        0.002   0.000   0.000   0.002
   10        0.001   0.001   0.000   0.001
   11        0.002   0.000   0.000   0.002
   12        0.000   0.000   0.000   0.000
   13        0.002   0.000   0.000   0.002
   14        0.002   0.001   0.000   0.003
   15        0.001   0.000   0.000   0.001
   16        0.002  -0.000   0.000   0.002
   17        0.007   0.002   0.001   0.010
   18        0.007   0.002   0.001   0.010
   19        0.007   0.002   0.001   0.011
   20        0.008   0.003   0.001   0.012
   21        0.007   0.002   0.001   0.011
   22        0.007   0.002   0.001   0.011
   23        0.007   0.003   0.001   0.012
   24        0.008   0.003   0.001   0.012
   25        0.016   0.030   2.763   2.809
   26        0.016   0.030   2.763   2.808
   27        0.016   0.030   2.770   2.817
   28        0.015   0.030   2.725   2.770
   29        0.015   0.030   2.760   2.805
   30        0.015   0.029   2.742   2.786
   31        0.015   0.031   2.737   2.782
   32        0.015   0.030   2.729   2.774
   33        0.016   0.029   2.769   2.814
   34        0.017   0.029   2.777   2.823
   35        0.015   0.030   2.717   2.762
   36        0.016   0.030   2.751   2.797
   37        0.015   0.030   2.736   2.781
   38        0.015   0.031   2.742   2.788
   39        0.015   0.031   2.732   2.777
   40        0.016   0.032   2.733   2.781
   41        0.002   0.027   0.000   0.029
   42        0.002   0.049   0.000   0.051
   43        0.002   0.033   0.000   0.035
   44        0.002   0.018   0.000   0.020
   45        0.002   0.053   0.000   0.055
   46        0.002   0.055   0.000   0.057
   47        0.002   0.015   0.000   0.017
   48        0.002   0.052   0.000   0.054
   49        0.002   0.022   0.000   0.024
   50        0.002   0.043   0.000   0.045
   51        0.002   0.043   0.000   0.045
   52        0.001   0.017   0.000   0.019
   53        0.002   0.025   0.000   0.027
   54        0.001   0.022   0.000   0.023
   55        0.002   0.028   0.000   0.030
   56        0.002   0.015   0.000   0.016
   57        0.002   0.015   0.000   0.017
   58        0.002   0.024   0.000   0.026
   59        0.002   0.057   0.000   0.060
   60        0.002   0.028   0.000   0.029
[...]
   74        0.002   0.047   0.000   0.050
   75        0.002   0.040   0.000   0.042
   76        0.002   0.059   0.000   0.061
   77        0.002   0.051   0.000   0.053
   78        0.002   0.032   0.000   0.034
   79        0.002   0.019   0.000   0.021
   80        0.002   0.032   0.000   0.033
   81        0.002   0.031   0.000   0.033
   82        0.002   0.030   0.000   0.032
   83        0.002   0.032   0.000   0.033
   84        0.002   0.017   0.000   0.019
   85        0.002   0.034   0.000   0.036
   86        0.002   0.044   0.000   0.046
   87        0.002   0.042   0.000   0.044
   88        0.002   0.047   0.000   0.049
tot          0.424   2.183  43.954  46.561