 vasp.5.4.4.18Apr17-6-g9f103f2a35 (build Dec 02 2020 12:53:39) complex

 executed on             LinuxIFC date 2021.07.31  14:36:51

 INCAR:
 POTCAR:    PAW_PBE Na_pv 19Sep2006
 POTCAR:    PAW_PBE Mg_pv 13Apr2007
 POTCAR:    PAW_PBE Mn_pv 02Aug2007
 POTCAR:    PAW_PBE O 08Apr2002

 POTCAR:    PAW_PBE Na_pv 19Sep2006
   VRHFIN =Na: p6s1

   TITEL  = PAW_PBE Na_pv 19Sep2006
   POMASS =   22.990; ZVAL   =    7.000    mass and valenz
   ENMAX  =  259.561; ENMIN  =  194.671 eV

 POTCAR:    PAW_PBE Mg_pv 13Apr2007
   VRHFIN =Mg: p6s2

   TITEL  = PAW_PBE Mg_pv 13Apr2007
   POMASS =   24.305; ZVAL   =    8.000    mass and valenz
   ENMAX  =  403.929; ENMIN  =  302.947 eV

 POTCAR:    PAW_PBE Mn_pv 02Aug2007
   VRHFIN =Mn: 3p4s3d

   TITEL  = PAW_PBE Mn_pv 02Aug2007
   POMASS =   54.938; ZVAL   =   13.000    mass and valenz
   ENMAX  =  269.864; ENMIN  =  202.398 eV

 POTCAR:    PAW_PBE O 08Apr2002
   VRHFIN =O: s2p4

   TITEL  = PAW_PBE O 08Apr2002
   POMASS =   16.000; ZVAL   =    6.000    mass and valenz
   ENMAX  =  400.000; ENMIN  =  300.000 eV

 Optimization of the real space projectors (new method)

 maximal supplied QI-value         = 17.01
 optimisation between [QCUT,QGAM] = [ 10.20, 20.41] = [ 29.16,116.64] Ry
 Optimized for a Real-space Cutoff    1.30 Angstroem

   l    n(q)    QCUT    max X(q) W(low)/X(q) W(high)/X(q)  e(spline)
   1      7    10.205     4.940    0.23E-03    0.84E-03    0.11E-06
   1      7    10.205     6.253    0.40E-03    0.13E-02    0.18E-06
   0      8    10.205    37.438    0.23E-03    0.37E-03    0.42E-07
   0      8    10.205     9.606    0.16E-03    0.26E-03    0.31E-07
 Optimization of the real space projectors (new method)

[...]

   l    n(q)    QCUT    max X(q) W(low)/X(q) W(high)/X(q)  e(spline)
   1      8    10.239     3.658    0.23E-03    0.30E-03    0.98E-07
   1      8    10.239     5.612    0.32E-03    0.65E-03    0.21E-06
   2      7    10.239    55.373    0.42E-03    0.45E-03    0.65E-07
   2      7    10.239    50.863    0.43E-03    0.48E-03    0.67E-07
   0      8    10.239    79.536    0.11E-03    0.21E-03    0.56E-07
   0      8    10.239    38.668    0.96E-04    0.19E-03    0.52E-07
 Optimization of the real space projectors (new method)

 maximal supplied QI-value         = 24.76
 optimisation between [QCUT,QGAM] = [ 10.15, 20.30] = [ 28.85,115.39] Ry
 Optimized for a Real-space Cutoff    1.38 Angstroem

   l    n(q)    QCUT    max X(q) W(low)/X(q) W(high)/X(q)  e(spline)
   0      8    10.150    20.381    0.22E-03    0.32E-03    0.29E-06
   0      8    10.150    15.268    0.23E-03    0.35E-03    0.30E-06
   1      8    10.150     5.964    0.46E-03    0.53E-03    0.21E-06
   1      8    10.150     5.382    0.38E-03    0.45E-03    0.19E-06
  PAW_PBE Na_pv 19Sep2006               :
  PAW_PBE Mg_pv 13Apr2007               :
  PAW_PBE Mn_pv 02Aug2007               :
  PAW_PBE O 08Apr2002                   :

 POSCAR: Na Mg Mn  O
  positions in cartesian coordinates

 METAGGA = SCAN     LMAXTAU =  6    LMIXTAU =  F

 VTST: version 3.2, (02/03/18)

 CHAIN: initializing optimizer

 OPT: Using VASP Dynamics algorithm
 CHAIN: Read ICHAIN            0

 POSCAR: Na Mg Mn  O
  positions in cartesian coordinates

 ion  position               nearest neighbor table
   1  0.013  0.938  0.248-  41 2.13  50 2.25  67 2.35  27 2.74  25 2.77
   2  0.485  0.909  0.754-  84 2.30  81 2.34  29 2.92  31 2.94
   3  0.637  0.632  0.758-  85 2.22  82 2.38
   4  0.181  0.651  0.751-  84 2.27  81 2.30
   5  0.643  0.908  0.252-  63 2.29  88 2.33  79 2.33
   6  0.493  0.498  0.248-  78 2.24  74 2.26  65 2.35  33 2.89  35 2.96
   7  0.283  0.408  0.747-  80 2.22  83 2.34
   8  0.434  0.217  0.756-  48 2.14  45 2.24  49 2.38  26 2.97
   9  0.825  0.607  0.237-  65 2.20  67 2.34  66 2.35  34 2.80
  10  0.757  0.253  0.245-  53 2.19  62 2.31
  11  0.111  0.401  0.252-  55 2.27  64 2.30
  12  0.796  0.398  0.744-  57 2.27  71 2.36
  13  0.994  0.921  0.744-  44 2.22  72 2.32  47 2.34  69 2.35  27 2.84  25 2.90
  14  0.895  0.166  0.757-  57 2.31  60 2.31  61 2.34  58 2.37  30 2.91  32 2.98
  15  0.309  0.746  0.253-  88 2.33
  16  0.356  0.114  0.255-  52 2.19  51 2.28  43 2.38  28 2.71  26 2.91
  17  0.653  0.279  0.996-  71 1.94  43 1.95  60 2.01  66 2.04  49 2.10  53 2.23  33 2.69  34 2.78

  18  0.641  0.258  0.507-  46 1.98  57 2.03  68 2.03  52 2.12  62 2.14  75 2.14  31 2.77  28 2.83
                            35 2.85
  19  0.157  0.256  0.007-  48 2.02  78 2.03  61 2.04  55 2.16  41 2.16  83 2.18  25 2.83  33 2.84
                            26 2.84
  20  0.137  0.255  0.487-  50 1.99  87 2.00  58 2.03  64 2.10  80 2.20  45 2.24  32 2.82  27 2.84

  21  0.153  0.762  0.003-  67 2.00  77 2.03  42 2.05  73 2.10  47 2.13  84 2.17  25 2.84  26 2.84
                            34 2.85  37 2.85
  22  0.142  0.757  0.498-  76 1.94  86 2.05  44 2.08  70 2.11  51 2.18  81 2.18  36 2.82  39 2.83

  23  0.670  0.768  0.992-  54 1.99  72 2.02  59 2.02  65 2.11  79 2.13  85 2.25  25 2.82  34 2.83
                            30 2.84
  24  0.655  0.763  0.492-  74 1.92  56 2.04  69 2.05  88 2.05  63 2.12  82 2.19  27 2.82
  25  0.994  0.930  0.002-  67 1.79  61 1.84  54 1.88  47 1.93  41 1.95  72 1.97   1 2.77  26 2.81
                            23 2.82  19 2.83  21 2.84  34 2.88  13 2.90  30 2.94
  26  0.318  0.089  0.997-  49 1.86  48 1.87  47 1.88  41 1.93  42 1.95  43 1.97  25 2.81  19 2.84
                            21 2.84  33 2.87  16 2.91  29 2.92   8 2.97
  27  0.980  0.928  0.491-  44 1.88  58 1.91  76 1.93  69 1.94  50 2.00  63 2.01   1 2.74  24 2.82
                            20 2.84  13 2.84  32 2.90  36 2.90  28 2.91
  28  0.315  0.099  0.495-  45 1.82  52 1.88  51 1.90  50 1.91  46 1.96  44 2.01  16 2.71  35 2.82
                            18 2.83  31 2.88  27 2.91
  29  0.489  0.925  0.014-  42 1.88  53 1.89  59 1.94  79 1.94  84 1.98  49 2.01  30 2.87  38 2.92
                             2 2.92  26 2.92
  30  0.820  0.094  0.007-  55 1.86  59 1.90  60 1.93  54 1.93  61 1.94  53 1.95  23 2.84  29 2.87
                            14 2.91  25 2.94  37 2.94
  31  0.486  0.939  0.493-  62 1.85  51 1.89  46 1.91  56 1.94  81 1.94  88 1.98  18 2.77  32 2.83
                            28 2.88   2 2.94  40 2.99
  32  0.812  0.094  0.500-  56 1.83  64 1.88  58 1.90  57 1.92  63 1.93  62 1.93  20 2.82  31 2.83
                            27 2.90  39 2.92  14 2.98
  33  0.484  0.420  0.999-  43 1.78  85 1.93  78 1.98  48 1.99  71 2.02  65 2.07  17 2.69  19 2.84
                            38 2.84  26 2.87   6 2.89  34 2.97
  34  0.825  0.599  0.988-  72 1.88  65 1.90  73 1.90  66 1.92  71 1.93  67 2.02  17 2.78   9 2.80
                            23 2.83  21 2.85  37 2.85  25 2.88  33 2.97
  35  0.478  0.424  0.505-  52 1.87  68 1.88  82 1.92  87 1.94  45 1.95  74 2.00  28 2.82  18 2.85
                            40 2.86  36 2.95   6 2.96
  36  0.818  0.595  0.510-  75 1.90  69 1.90  70 1.91  76 1.96  68 2.03  74 2.03  22 2.82  39 2.87
                            27 2.90  35 2.95
  37  0.988  0.433  0.997-  83 1.89  66 1.91  60 1.92  77 1.93  55 1.96  73 1.97  34 2.85  21 2.85
                            38 2.93  30 2.94
  38  0.325  0.588  0.002-  78 1.85  85 1.87  84 1.91  77 1.93  79 1.96  83 1.97  33 2.84  29 2.92
                            37 2.93
  39  0.984  0.430  0.504-  75 1.85  70 1.89  64 1.89  86 1.90  80 1.95  57 2.02  22 2.83  36 2.87
                            40 2.90  32 2.92
  40  0.318  0.595  0.504-  82 1.86  81 1.90  87 1.92  80 1.97  88 1.98  86 2.01  35 2.86  39 2.90
                            31 2.99
  41  0.160  0.072  0.106-  26 1.93  25 1.95   1 2.13  19 2.16
  42  0.331  0.936  0.096-  29 1.88  26 1.95  21 2.05
  43  0.480  0.268  0.084-  33 1.78  17 1.95  26 1.97  16 2.38
  44  0.136  0.935  0.588-  27 1.88  28 2.01  22 2.08  13 2.22
  45  0.322  0.247  0.593-  28 1.82  35 1.95  20 2.24   8 2.24
  46  0.469  0.084  0.593-  31 1.91  28 1.96  18 1.98
  47  0.157  0.944  0.901-  26 1.88  25 1.93  21 2.13  13 2.34
  48  0.320  0.246  0.906-  26 1.87  33 1.99  19 2.02   8 2.14
  49  0.474  0.082  0.914-  26 1.86  29 2.01  17 2.10   8 2.38
  50  0.155  0.093  0.398-  28 1.91  20 1.99  27 2.00   1 2.25
  51  0.331  0.948  0.404-  31 1.89  28 1.90  22 2.18  16 2.28
  52  0.466  0.267  0.407-  35 1.87  28 1.88  18 2.12  16 2.19
  53  0.652  0.089  0.099-  29 1.89  30 1.95  10 2.19  17 2.23
  54  0.836  0.934  0.089-  25 1.88  30 1.93  23 1.99
  55  0.968  0.261  0.094-  30 1.86  37 1.96  19 2.16  11 2.27
  56  0.652  0.939  0.582-  32 1.83  31 1.94  24 2.04
  57  0.815  0.253  0.597-  32 1.92  39 2.02  18 2.03  12 2.27  14 2.31
  58  0.969  0.081  0.585-  32 1.90  27 1.91  20 2.03  14 2.37
  59  0.655  0.944  0.914-  30 1.90  29 1.94  23 2.02
  60  0.822  0.259  0.918-  37 1.92  30 1.93  17 2.01  14 2.31
  61  0.978  0.079  0.918-  25 1.84  30 1.94  19 2.04  14 2.34
  62  0.648  0.084  0.402-  31 1.85  32 1.93  18 2.14  10 2.31
  63  0.826  0.951  0.392-  32 1.93  27 2.01  24 2.12   5 2.29
  64  0.951  0.262  0.407-  32 1.88  39 1.89  20 2.10  11 2.30
  65  0.671  0.590  0.090-  34 1.90  33 2.07  23 2.11   9 2.20   6 2.35
  66  0.835  0.448  0.088-  37 1.91  34 1.92  17 2.04   9 2.35
  67  0.984  0.774  0.088-  25 1.79  21 2.00  34 2.02   9 2.34   1 2.35
  68  0.634  0.429  0.600-  35 1.88  36 2.03  18 2.03
  69  0.827  0.765  0.592-  36 1.90  27 1.94  24 2.05  13 2.35
  70  0.970  0.578  0.601-  39 1.89  36 1.91  22 2.11
  71  0.659  0.440  0.896-  34 1.93  17 1.94  33 2.02  12 2.36
  72  0.841  0.765  0.899-  34 1.88  25 1.97  23 2.02  13 2.32
  73  0.981  0.590  0.897-  34 1.90  37 1.97  21 2.10
  74  0.648  0.591  0.410-  24 1.92  35 2.00  36 2.03   6 2.26
  75  0.833  0.444  0.418-  39 1.85  36 1.90  18 2.14
  76  0.976  0.756  0.410-  27 1.93  22 1.94  36 1.96
  77  0.159  0.587  0.089-  38 1.93  37 1.93  21 2.03
  78  0.328  0.437  0.096-  38 1.85  33 1.98  19 2.03   6 2.24
  79  0.486  0.753  0.098-  29 1.94  38 1.96  23 2.13   5 2.33
  80  0.149  0.439  0.602-  39 1.95  40 1.97  20 2.20   7 2.22
  81  0.339  0.768  0.590-  40 1.90  31 1.94  22 2.18   4 2.30   2 2.34
  82  0.466  0.581  0.595-  40 1.86  35 1.92  24 2.19   3 2.38
  83  0.149  0.437  0.906-  37 1.89  38 1.97  19 2.18   7 2.34
  84  0.340  0.756  0.910-  38 1.91  29 1.98  21 2.17   4 2.27   2 2.30
  85  0.466  0.570  0.903-  38 1.87  33 1.93   3 2.22  23 2.25
  86  0.143  0.580  0.407-  39 1.90  40 2.01  22 2.05
  87  0.320  0.434  0.412-  40 1.92  35 1.94  20 2.00
  88  0.475  0.763  0.404-  40 1.98  31 1.98  24 2.05  15 2.33   5 2.33

  LATTYP: Found a hexagonal cell.
 ALAT       =    10.0190000534
 C/A-ratio  =     1.1196726572

  Lattice vectors:

 A1 = (  10.0190000534,   0.0000000000,   0.0000000000)
 A2 = (  -5.0095000267,   8.6767085668,   0.0000000000)
 A3 = (   0.0000000000,   0.0000000000,  11.2180004120)

Analysis of symmetry for initial positions (statically):
 Subroutine PRICEL returns:
 Original cell was already a primitive cell.

 Routine SETGRP: Setting up the symmetry group for a
 hexagonal supercell.

 Subroutine GETGRP returns: Found  1 space group operations
 (whereof  1 operations were pure point group operations)
[...]
   4       0.006     0.006     2.540    -0.126     2.540
   5      -0.015    -0.015     2.245    -0.071     2.245
   6       0.003     0.003     1.165    -0.051     1.165
   7      -0.000     0.000     2.736    -0.114     2.736
   8       0.012     0.011     3.335    -0.076     3.335
   9       0.018     0.018     1.616    -0.082     1.617
  10       0.015     0.015     2.893    -0.134     2.893
  11       0.007     0.007     2.886    -0.144     2.886
  12      -0.011    -0.010     2.358    -0.099     2.358
  13       0.017     0.019     1.612    -0.075     1.610
  14       0.002     0.002     1.544    -0.069     1.545
  15      -0.015    -0.014     2.144    -0.096     2.144
  16       0.007     0.008     1.054    -0.063     1.054
  17       0.066     0.068    13.602     0.138    13.600
  18       0.034     0.038    12.673     0.130    12.670
  19       0.025     0.028    12.275     0.101    12.271
  20       0.026     0.029    12.370     0.111    12.367
  21       0.037     0.041    12.465     0.119    12.461
  22       0.039     0.042    13.030     0.113    13.027
  23       0.033     0.035    13.036     0.115    13.033
  24       0.048     0.051    12.060     0.122    12.058
  25     157.485   157.463    94.180  -134.201    94.203
  26     158.792   158.770    95.247  -136.046    95.270
  27     161.451   161.423    99.238  -139.840    99.266
  28     159.349   159.334    97.105  -136.713    97.120
  29     161.872   161.856    97.459  -140.236    97.475
  30     161.084   161.062    99.584  -139.156    99.607
  31     160.673   160.653    95.542  -138.483    95.561
  32     158.753   158.731    92.471  -136.000    92.493
  33     161.946   161.925    99.945  -140.027    99.966
  34     160.138   160.122    93.459  -137.984    93.474
  35     161.247   161.236    98.382  -139.217    98.393
  36     162.651   162.632    99.339  -141.264    99.359
  37     162.121   162.104    97.650  -140.502    97.667
  38     160.832   160.813    94.341  -138.706    94.360
  39     160.216   160.200    94.574  -137.902    94.590
  40     162.148   162.134    95.280  -140.574    95.294
  41       2.545     2.545     9.036    -2.494     9.037
  42       2.667     2.671     8.168    -2.705     8.164
  43       5.024     5.029    12.656    -5.208    12.651
  44       1.658     1.664     6.930    -1.605     6.923
  45       3.071     3.075     9.498    -3.106     9.494
  46       2.103     2.106     8.145    -2.039     8.142
  47       3.272     3.279    10.531    -3.278    10.525
  48       1.430     1.434     6.428    -1.373     6.424
  49       2.030     2.036     6.788    -2.050     6.781
  50       1.344     1.346     6.357    -1.263     6.355
  51       3.590     3.594     9.320    -3.714     9.317
  52       3.029     3.030     9.076    -3.072     9.075
  53       2.389     2.389     7.408    -2.430     7.408
  54       2.527     2.534     7.416    -2.592     7.409
  55       2.257     2.256     7.208    -2.279     7.209
  56       3.418     3.423     9.155    -3.532     9.149
  57       1.122     1.122     4.510    -1.099     4.510
  58       2.450     2.457     7.111    -2.521     7.104
  59       2.438     2.444     9.146    -2.375     9.140
  60       1.391     1.393     5.311    -1.383     5.309
[...]
  74       0.298     0.299     3.992    -0.176     3.990
  75       2.707     2.714     7.855    -2.782     7.847
  76       1.102     1.104     6.292    -0.985     6.289
  77       1.923     1.923     6.288    -1.937     6.288
  78       2.360     2.365     8.207    -2.353     8.203
  79       1.718     1.719     6.818    -1.677     6.818
  80       2.126     2.133     7.562    -2.111     7.555
  81       2.196     2.200     6.296    -2.263     6.292
  82       3.059     3.065     8.384    -3.164     8.377
  83       1.787     1.794     6.450    -1.782     6.443
  84       1.456     1.460     5.370    -1.444     5.366
  85       3.337     3.341     9.578    -3.396     9.575
  86       1.834     1.836     6.881    -1.800     6.879
  87       1.948     1.952     6.977    -1.929     6.973
  88       0.573     0.575     4.558    -0.466     4.556

 Dipolar hyperfine coupling parameters (MHz)
  ion      A_xx      A_yy      A_zz      A_xy      A_xz      A_yz
   1      -0.903    -1.187     2.090     0.079    -0.032     0.048
   2      -0.994    -0.779     1.773    -0.001    -0.032     0.022
   3      -0.486    -0.730     1.216     0.092     0.059     0.019
   4      -0.575    -0.674     1.248     0.108    -0.055    -0.008
   5      -0.623    -0.849     1.472     0.134     0.043     0.051
   6      -0.709    -1.063     1.771    -0.217     0.074     0.008
   7      -0.638    -0.816     1.453    -0.096    -0.004    -0.021
   8      -1.249    -0.669     1.918    -0.016    -0.091    -0.043
   9      -0.992    -0.765     1.757     0.007    -0.002     0.031
  10      -0.690    -0.497     1.187     0.032    -0.033     0.011
  11      -0.737    -0.779     1.515     0.194    -0.033    -0.012
  12      -0.646    -0.741     1.387    -0.119    -0.034    -0.029
  13      -1.039    -0.791     1.830     0.080     0.063    -0.007
  14      -1.133    -0.599     1.732    -0.126     0.011    -0.015
  15      -0.991    -0.502     1.493     0.014    -0.028     0.036
  16      -1.046    -0.933     1.980    -0.205    -0.079    -0.079
  17       1.706     1.282    -2.988     0.045    -0.062    -0.170
  18       1.466     1.477    -2.943     0.031    -0.011     0.140
  19       1.438     1.401    -2.839     0.142    -0.043     0.077
  20       1.368     1.503    -2.871     0.098    -0.048     0.045
  21       1.452     1.439    -2.891    -0.065     0.162     0.152
  22       1.486     1.407    -2.893    -0.048    -0.054    -0.178
  23       1.470     1.361    -2.832    -0.045    -0.120     0.162
  24       1.384     1.526    -2.910    -0.163     0.011    -0.084
  25      -0.188     1.544    -1.356     0.806    -1.234     1.094
  26      -0.888     1.595    -0.707    -0.502    -0.543     0.829
  27      -0.426    -0.019     0.445     1.560    -0.245     0.293
  28       1.419    -0.003    -1.415     0.381    -0.210    -1.330
  29      -0.897    -1.152     2.049     0.623     0.352    -0.766
  30      -1.053    -1.947     3.000     0.954    -0.411    -1.257
  31      -0.564     0.611    -0.047     0.540     1.328     1.052
  32       0.519     0.355    -0.873    -0.394     0.405     0.592
  33       0.278    -0.364     0.086     1.838    -0.248     2.611
  34       1.466    -0.118    -1.348     0.149     1.028     1.447
  35       0.843    -0.846     0.002     0.496    -1.045    -1.182
  36      -1.166    -0.424     1.590     2.163     0.248     0.247
  37      -1.119    -0.302     1.420    -1.378     0.671     0.411
  38      -0.242     0.733    -0.491     0.902    -0.003     0.416
  39       0.512     0.682    -1.194    -0.535    -0.535    -0.643
  40       0.499    -0.837     0.338     0.617    -1.418     0.123
  41      -0.534     3.067    -2.533    -5.003     0.771    -1.516
  42      -5.323     3.868     1.454     4.374     2.050     4.436
  43       4.690    -7.400     2.710     2.314    -4.904     2.888
  44      -4.231     3.624     0.607    -4.763    -4.684     2.705
  45       7.322    -6.366    -0.956    -1.386     4.446    -0.570
  46      -2.563     3.769    -1.206     4.974    -0.734    -4.526
  47      -2.619     3.804    -1.186    -6.088     0.766    -4.140
  48       5.135    -6.039     0.904    -0.224    -6.278    -1.602
  49      -5.722     4.048     1.674     3.486     1.388     5.013
  50      -2.422     1.606     0.816    -4.524    -2.918     3.751
  51      -4.495     2.866     1.629     4.495    -3.215    -3.728
  52       6.819    -5.896    -0.924    -0.623     4.327    -0.341
  53      -3.250     0.227     3.023    -5.580     3.456    -4.841
  54      -3.719     0.803     2.915     5.074     2.625     5.717
  55       5.884    -6.811     0.927     0.295    -4.352     0.309
  56      -4.778     2.275     2.503    -4.889    -2.098     4.777
  57       3.912    -5.354     1.442     0.045     4.259     0.063
  58      -3.796     3.090     0.706     4.508    -1.159    -4.683
  59      -1.659     2.785    -1.126    -5.348     2.167    -3.205
  60       4.059    -5.700     1.641    -1.200    -5.204     0.410
[...]
  74      -2.256     1.662     0.594    -3.489    -1.847     3.314
  75      -4.209     4.118     0.092     5.572    -1.667    -5.831
  76       4.692    -5.117     0.425     0.879     4.830     1.478
  77      -4.250     3.305     0.945    -3.695     0.915    -4.334
  78      -3.301     3.030     0.271     5.943     3.113     4.077
  79       4.362    -6.338     1.976     1.962    -4.757    -0.311
  80      -2.221     2.163     0.059    -5.491    -1.809     3.802
  81       5.896    -6.271     0.375     2.414     3.870    -0.283
  82      -3.952     2.551     1.401     6.228    -3.988    -3.908
  83      -3.986     3.723     0.263    -4.943     2.385    -4.204
  84       5.466    -4.661    -0.805     1.328    -3.646    -0.692
  85      -2.182     3.664    -1.482     5.559     2.616     3.289
  86      -1.956     2.067    -0.111    -5.217    -1.056     4.025
  87      -2.835     2.156     0.679     4.497    -2.184    -4.709
  88       4.959    -5.576     0.618     0.901     4.433     1.309

 Total hyperfine coupling parameters after diagonalization (MHz)
 (convention: |A_zz| > |A_xx| > |A_yy|)
  ion      A_xx      A_yy      A_zz     asymmetry (A_yy - A_xx)/ A_zz
   1      -1.085    -0.760     2.214       0.147
   2       0.798     0.583     3.352      -0.064
   3       1.860     1.557     3.536      -0.086
   4       2.033     1.796     3.789      -0.063
   5       1.682     1.333     3.719      -0.094
   6       0.558    -0.001     2.939      -0.190
   7       2.140     1.878     4.189      -0.063
   8       2.667     2.083     5.256      -0.111
   9       0.852     0.624     3.375      -0.067
  10       2.401     2.198     4.081      -0.050
  11       2.323     1.934     4.402      -0.088
  12       1.793     1.535     3.746      -0.069
  13       0.842     0.546     3.442      -0.086
  14       0.974     0.383     3.277      -0.180
  15       1.641     1.152     3.638      -0.135
  16       0.276    -0.152     3.037      -0.141
  17      14.883    10.604    15.312      -0.279
  18      14.112     9.723    14.175      -0.310
  19      13.549     9.430    13.835      -0.298
  20      13.685     9.495    13.922      -0.301
  21      13.853     9.559    13.973      -0.307
  22      14.419    10.126    14.535      -0.295
  23      14.380    10.191    14.526      -0.288
  24      13.335     9.146    13.692      -0.306
  25      94.790    91.620    96.198      -0.033
  26      94.620    93.911    97.278      -0.007
  27      99.769    97.409   100.620      -0.023
  28      97.692    94.905    98.762      -0.028
  29      97.072    95.641    99.712      -0.014
  30      98.905    96.918   102.997      -0.019
  31      95.242    93.868    97.573      -0.014
  32      92.919    91.226    93.335      -0.018
  33     100.413    96.546   102.938      -0.038
  34      93.925    91.010    95.487      -0.031
  35      98.106    96.697   100.377      -0.014
  36     100.493    96.369   101.215      -0.041
  37      98.389    95.355    99.258      -0.031
  38      93.928    93.451    95.701      -0.005
  39      95.049    92.980    95.740      -0.022
  40      94.862    93.838    97.183      -0.011
  41       6.248     4.942    15.922      -0.082
  42       6.403     1.083    17.007      -0.313
  43      13.094     3.506    21.354      -0.449
  44       6.192    -0.911    15.489      -0.459
  45       6.603     2.985    18.893      -0.191
  46       5.682     2.136    16.606      -0.214
  47       8.284     3.747    19.544      -0.232
  48       3.473    -0.306    16.104      -0.235
  49       4.723    -0.064    15.683      -0.305
  50       3.983     0.953    14.128      -0.214
  51       7.815     2.434    17.703      -0.304
  52       6.218     3.145    17.864      -0.172
  53       5.104     0.051    17.070      -0.296
  54       4.766     0.271    17.190      -0.262
  55       5.639     0.365    15.624      -0.338
  56       7.468     1.858    18.122      -0.310
  57       2.752    -0.845    11.622      -0.310
  58       5.064     0.865    15.384      -0.273
  59       6.374     3.912    17.135      -0.144
  60       2.870    -0.546    13.604      -0.251
[...]
  74       2.041    -0.310    10.239      -0.230
  75       4.724     0.587    18.232      -0.227
  76       3.771     0.787    14.309      -0.209
  77       4.507     0.408    13.948      -0.294
  78       5.694     1.272    17.642      -0.251
  79       5.264     0.090    15.099      -0.343
  80       5.527     1.526    15.612      -0.256
  81       5.013    -0.603    14.466      -0.388
  82       6.527     0.390    18.215      -0.337
  83       4.012     0.025    15.292      -0.261
  84       2.890     0.516    12.691      -0.187
  85       6.492     3.931    18.301      -0.140
  86       5.191     0.908    14.539      -0.295
  87       4.217     1.420    15.283      -0.183
  88       2.515    -1.286    12.438      -0.306

 stress matrix after NEB project (eV)
    -42.90119     -3.10240     -3.23665
     -3.09139    -43.60431      1.59843
     -3.21103      1.54238    -59.43558
  FORCES: max atom, RMS     2.567507    1.153414
  FORCE total and by dimension   10.819987    2.145061
  Stress total and by dimension   85.553130   59.435580

 total charge

[...]

 magnetization (x)

# of ion       s       p       d       tot
    1        0.000  -0.000   0.000   0.000
    2        0.001   0.001   0.000   0.002
    3        0.002   0.000   0.000   0.002
    4        0.002   0.000   0.000   0.002
    5        0.002  -0.000   0.000   0.001
    6        0.001   0.000   0.000   0.001
    7        0.002   0.000   0.000   0.002
    8        0.002   0.000   0.000   0.003
    9        0.001   0.001   0.000   0.002
   10        0.002   0.001   0.000   0.003
   11        0.002   0.000   0.000   0.003
   12        0.002  -0.000   0.000   0.002
   13        0.001   0.001   0.000   0.002
   14        0.001   0.000   0.000   0.001
   15        0.002  -0.000   0.000   0.001
   16        0.001   0.000   0.000   0.001
   17        0.007   0.003   0.002   0.012
   18        0.007   0.002   0.001   0.010
   19        0.007   0.002   0.001   0.010
   20        0.007   0.002   0.001   0.010
   21        0.007   0.002   0.001   0.010
   22        0.007   0.002   0.001   0.011
   23        0.007   0.002   0.001   0.010
   24        0.007   0.002   0.001   0.010
   25        0.015   0.031   2.684   2.730
   26        0.015   0.031   2.710   2.755
   27        0.016   0.030   2.769   2.815
   28        0.016   0.031   2.721   2.768
   29        0.016   0.030   2.772   2.818
   30        0.016   0.031   2.757   2.804
   31        0.015   0.031   2.747   2.793
   32        0.015   0.031   2.708   2.754
   33        0.016   0.029   2.776   2.821
   34        0.014   0.030   2.738   2.782
   35        0.016   0.030   2.759   2.805
   36        0.016   0.030   2.789   2.834
   37        0.016   0.030   2.777   2.823
   38        0.015   0.030   2.749   2.794
   39        0.015   0.031   2.738   2.784
   40        0.014   0.029   2.777   2.820
   41        0.002   0.039   0.000   0.041
   42        0.002   0.041   0.000   0.043
   43        0.003   0.081   0.000   0.084
   44        0.002   0.023   0.000   0.025
   45        0.002   0.047   0.000   0.050
   46        0.002   0.031   0.000   0.033
   47        0.003   0.051   0.000   0.053
   48        0.002   0.019   0.000   0.021
   49        0.002   0.030   0.000   0.032
   50        0.002   0.018   0.000   0.020
   51        0.002   0.058   0.000   0.060
   52        0.002   0.047   0.000   0.049
   53        0.002   0.036   0.000   0.038
   54        0.002   0.039   0.000   0.041
   55        0.002   0.034   0.000   0.036
   56        0.002   0.054   0.000   0.057
   57        0.001   0.016   0.000   0.017
   58        0.002   0.038   0.000   0.040
   59        0.003   0.036   0.000   0.039
   60        0.002   0.019   0.000   0.021
[...]
   74        0.001   0.000   0.000   0.002
   75        0.002   0.042   0.000   0.044
   76        0.002   0.013   0.000   0.015
   77        0.002   0.029   0.000   0.031
   78        0.002   0.035   0.000   0.037
   79        0.002   0.024   0.000   0.026
   80        0.002   0.032   0.000   0.034
   81        0.002   0.034   0.000   0.036
   82        0.002   0.048   0.000   0.050
   83        0.002   0.026   0.000   0.028
   84        0.002   0.021   0.000   0.023
   85        0.002   0.053   0.000   0.055
   86        0.002   0.027   0.000   0.029
   87        0.002   0.029   0.000   0.031
   88        0.001   0.005   0.000   0.006
tot          0.419   2.142  43.981  46.542