 vasp.5.4.4.18Apr17-6-g9f103f2a35 (build Dec 02 2020 12:53:39) complex

 executed on             LinuxIFC date 2021.08.02  20:02:41

 INCAR:
 POTCAR:    PAW_PBE Na_pv 19Sep2006
 POTCAR:    PAW_PBE Mg_pv 13Apr2007
 POTCAR:    PAW_PBE Mn_pv 02Aug2007
 POTCAR:    PAW_PBE O 08Apr2002

 POTCAR:    PAW_PBE Na_pv 19Sep2006
   VRHFIN =Na: p6s1

   TITEL  = PAW_PBE Na_pv 19Sep2006
   POMASS =   22.990; ZVAL   =    7.000    mass and valenz
   ENMAX  =  259.561; ENMIN  =  194.671 eV

 POTCAR:    PAW_PBE Mg_pv 13Apr2007
   VRHFIN =Mg: p6s2

   TITEL  = PAW_PBE Mg_pv 13Apr2007
   POMASS =   24.305; ZVAL   =    8.000    mass and valenz
   ENMAX  =  403.929; ENMIN  =  302.947 eV

 POTCAR:    PAW_PBE Mn_pv 02Aug2007
   VRHFIN =Mn: 3p4s3d

   TITEL  = PAW_PBE Mn_pv 02Aug2007
   POMASS =   54.938; ZVAL   =   13.000    mass and valenz
   ENMAX  =  269.864; ENMIN  =  202.398 eV

 POTCAR:    PAW_PBE O 08Apr2002
   VRHFIN =O: s2p4

   TITEL  = PAW_PBE O 08Apr2002
   POMASS =   16.000; ZVAL   =    6.000    mass and valenz
   ENMAX  =  400.000; ENMIN  =  300.000 eV

 Optimization of the real space projectors (new method)

 maximal supplied QI-value         = 17.01
 optimisation between [QCUT,QGAM] = [ 10.20, 20.41] = [ 29.16,116.64] Ry
 Optimized for a Real-space Cutoff    1.30 Angstroem

   l    n(q)    QCUT    max X(q) W(low)/X(q) W(high)/X(q)  e(spline)
   1      7    10.205     4.940    0.23E-03    0.84E-03    0.11E-06
   1      7    10.205     6.253    0.40E-03    0.13E-02    0.18E-06
   0      8    10.205    37.438    0.23E-03    0.37E-03    0.42E-07
   0      8    10.205     9.606    0.16E-03    0.26E-03    0.31E-07
 Optimization of the real space projectors (new method)

[...]

   l    n(q)    QCUT    max X(q) W(low)/X(q) W(high)/X(q)  e(spline)
   1      8    10.239     3.658    0.23E-03    0.30E-03    0.98E-07
   1      8    10.239     5.612    0.32E-03    0.65E-03    0.21E-06
   2      7    10.239    55.373    0.42E-03    0.45E-03    0.65E-07
   2      7    10.239    50.863    0.43E-03    0.48E-03    0.67E-07
   0      8    10.239    79.536    0.11E-03    0.21E-03    0.56E-07
   0      8    10.239    38.668    0.96E-04    0.19E-03    0.52E-07
 Optimization of the real space projectors (new method)

 maximal supplied QI-value         = 24.76
 optimisation between [QCUT,QGAM] = [ 10.15, 20.30] = [ 28.85,115.39] Ry
 Optimized for a Real-space Cutoff    1.38 Angstroem

   l    n(q)    QCUT    max X(q) W(low)/X(q) W(high)/X(q)  e(spline)
   0      8    10.150    20.381    0.22E-03    0.32E-03    0.29E-06
   0      8    10.150    15.268    0.23E-03    0.35E-03    0.30E-06
   1      8    10.150     5.964    0.46E-03    0.53E-03    0.21E-06
   1      8    10.150     5.382    0.38E-03    0.45E-03    0.19E-06
  PAW_PBE Na_pv 19Sep2006               :
  PAW_PBE Mg_pv 13Apr2007               :
  PAW_PBE Mn_pv 02Aug2007               :
  PAW_PBE O 08Apr2002                   :

 POSCAR: Na Mg Mn  O
  positions in cartesian coordinates

 METAGGA = SCAN     LMAXTAU =  6    LMIXTAU =  F

 VTST: version 3.2, (02/03/18)

 CHAIN: initializing optimizer

 OPT: Using VASP Dynamics algorithm
 CHAIN: Read ICHAIN            0

 POSCAR: Na Mg Mn  O
  positions in cartesian coordinates

 ion  position               nearest neighbor table
   1  0.345  0.279  0.248-
   2  0.686  0.096  0.760-  49 2.29  60 2.30  56 2.34  59 2.37
   3  0.185  0.628  0.749-  73 2.18  84 2.37  70 2.38
   4  0.018  0.948  0.744-  61 2.25  58 2.29  69 2.37  27 2.75  25 2.98
   5  0.908  0.104  0.261-  63 2.15  64 2.31  55 2.35  32 2.81  30 2.93
   6  0.042  0.445  0.251-  86 2.31  77 2.37  39 2.88  37 2.89
   7  0.024  0.264  0.753-  60 2.30  58 2.33  83 2.36
   8  0.383  0.415  0.754-  45 2.19  85 2.23
   9  0.825  0.748  0.251-  74 2.28  65 2.34
  10  0.366  0.622  0.261-  86 2.22  88 2.27  87 2.35  40 2.72
  11  0.690  0.411  0.243-  43 2.31  65 2.38
  12  0.837  0.580  0.744-  68 2.26  34 2.80  36 2.84
  13  0.347  0.070  0.753-  47 2.29  46 2.32  44 2.32  49 2.36  26 2.79  28 2.84
  14  0.546  0.771  0.745-  82 2.33  56 2.37
  15  0.541  0.957  0.253-  53 2.27  62 2.32  51 2.33  88 2.36  31 2.80  29 2.82
  16  0.186  0.913  0.247-  76 2.28  67 2.35
  17  0.682  0.249  0.997-  49 1.99  71 2.03  66 2.07  60 2.07  43 2.10  53 2.11  29 2.76  33 2.81
                            26 2.82
  18  0.691  0.290  0.507-  68 1.92  75 2.02  57 2.07  46 2.09  52 2.11  62 2.14  36 2.78  35 2.81
                            28 2.84
  19  0.189  0.254  0.999-  41 2.01  61 2.06  78 2.06  55 2.06  48 2.07  83 2.09  30 2.85  37 2.86

  20  0.200  0.294  0.509-  80 1.99  87 1.99  64 2.09  45 2.14  58 2.16  35 2.78  39 2.81  40 2.82

  21  0.197  0.755  0.992-  73 1.97  84 2.01  77 2.01  47 2.07  42 2.10  67 2.10  38 2.76
  22  0.193  0.775  0.491-  86 2.00  70 2.04  76 2.04  51 2.04  44 2.06  81 2.12  40 2.80  31 2.84
                            39 2.86
  23  0.682  0.741  0.998-  85 1.99  65 1.99  79 2.06  54 2.09  72 2.09  59 2.13  33 2.81  38 2.84

  24  0.692  0.778  0.499-  63 2.01  74 2.05  88 2.08  69 2.09  56 2.10  82 2.10
  25  0.029  0.922  0.008-  67 1.84  47 1.90  54 1.93  61 1.95  41 1.95  72 1.96  26 2.86  34 2.86
                            30 2.90   4 2.98
  26  0.358  0.085  0.002-  47 1.88  48 1.89  42 1.92  41 1.93  49 1.95  43 1.99  13 2.79  17 2.82
                            29 2.82  25 2.86  33 2.89
  27  0.028  0.950  0.499-  69 1.85  50 1.90  44 1.93  63 1.94  58 1.97  76 2.10   4 2.75  28 2.92
                            32 2.92  36 2.95
  28  0.365  0.108  0.501-  46 1.86  52 1.87  45 1.97  51 1.99  44 2.00  50 2.03  31 2.78  18 2.84
                            13 2.84  35 2.90  27 2.92
  29  0.529  0.932  0.002-  53 1.88  79 1.89  49 1.92  42 1.96  59 1.98  84 2.00  17 2.76  15 2.82
                            26 2.82  30 2.88  38 2.91
  30  0.861  0.088  0.002-  59 1.87  53 1.90  61 1.90  54 1.93  60 1.94  55 1.96  19 2.85  29 2.88
                            25 2.90  37 2.92   5 2.93
  31  0.520  0.943  0.502-  56 1.88  51 1.88  88 1.89  81 1.91  62 1.95  46 1.96  28 2.78  15 2.80
                            40 2.81  22 2.84  32 2.90
  32  0.854  0.112  0.506-  58 1.91  56 1.92  57 1.92  63 1.92  62 1.93  64 1.93   5 2.81  31 2.90
                            39 2.90  27 2.92
  33  0.527  0.418  0.001-  48 1.86  71 1.86  78 1.88  43 1.89  85 1.92  65 1.95  23 2.81  17 2.81
                            26 2.89  34 2.92  38 3.03
  34  0.864  0.593  0.992-  72 1.82  71 1.89  65 1.96  67 1.99  73 2.00  66 2.01  12 2.80  25 2.86
                            37 2.91  33 2.92
  35  0.520  0.442  0.503-  68 1.85  52 1.89  82 1.89  45 1.91  87 1.93  74 1.97  20 2.78  18 2.81
                            28 2.90  36 2.90  40 2.93
  36  0.854  0.609  0.492-  74 1.80  75 1.83  68 1.91  69 1.92  76 1.97  70 2.01  18 2.78  12 2.84
                            35 2.90  39 2.93  27 2.95
  37  0.029  0.424  0.994-  55 1.91  73 1.92  66 1.93  77 1.94  83 1.98  60 2.01  38 2.84  19 2.86
                             6 2.89  34 2.91  30 2.92
  38  0.356  0.596  0.989-  77 1.89  78 1.90  83 1.91  84 1.94  85 2.00  79 2.03  21 2.76  23 2.84
                            37 2.84  29 2.91  33 3.03
  39  0.028  0.446  0.507-  70 1.85  64 1.90  57 1.91  80 1.95  75 1.98  86 2.07  20 2.81  22 2.86
                            40 2.87   6 2.88  32 2.90  36 2.93
  40  0.359  0.619  0.503-  81 1.91  86 1.93  88 1.93  82 1.93  80 1.96  87 1.99  10 2.72  22 2.80
                            31 2.81  20 2.82  39 2.87  35 2.93
  41  0.199  0.090  0.095-  26 1.93  25 1.95  19 2.01
  42  0.366  0.931  0.098-  26 1.92  29 1.96  21 2.10
  43  0.513  0.259  0.100-  33 1.89  26 1.99  17 2.10  11 2.31
  44  0.187  0.944  0.592-  27 1.93  28 2.00  22 2.06  13 2.32
  45  0.377  0.276  0.601-  35 1.91  28 1.97  20 2.14   8 2.19
  46  0.512  0.103  0.598-  28 1.86  31 1.96  18 2.09  13 2.32
  47  0.192  0.938  0.911-  26 1.88  25 1.90  21 2.07  13 2.29
  48  0.373  0.255  0.915-  33 1.86  26 1.89  19 2.07
  49  0.515  0.080  0.903-  29 1.92  26 1.95  17 1.99   2 2.29  13 2.36
  50  0.190  0.094  0.399-  27 1.90  28 2.03
  51  0.372  0.948  0.400-  31 1.88  28 1.99  22 2.04  15 2.33
  52  0.505  0.278  0.411-  28 1.87  35 1.89  18 2.11
  53  0.696  0.076  0.094-  29 1.88  30 1.90  17 2.11  15 2.27
  54  0.861  0.923  0.091-  25 1.93  30 1.93  23 2.09
  55  0.017  0.263  0.093-  37 1.91  30 1.96  19 2.06   5 2.35
  56  0.682  0.954  0.593-  31 1.88  32 1.92  24 2.10   2 2.34  14 2.37
  57  0.868  0.281  0.597-  39 1.91  32 1.92  18 2.07
  58  0.010  0.102  0.598-  32 1.91  27 1.97  20 2.16   4 2.29   7 2.33
  59  0.701  0.938  0.910-  30 1.87  29 1.98  23 2.13   2 2.37
  60  0.860  0.246  0.904-  30 1.94  37 2.01  17 2.07   2 2.30   7 2.30
  61  0.012  0.073  0.909-  30 1.90  25 1.95  19 2.06   4 2.25
  62  0.691  0.105  0.411-  32 1.93  31 1.95  18 2.14  15 2.32
  63  0.865  0.957  0.413-  32 1.92  27 1.94  24 2.01   5 2.15
  64  0.013  0.279  0.415-  39 1.90  32 1.93  20 2.09   5 2.31
  65  0.697  0.580  0.091-  33 1.95  34 1.96  23 1.99   9 2.34  11 2.38
  66  0.868  0.424  0.086-  37 1.93  34 2.01  17 2.07
  67  0.023  0.762  0.092-  25 1.84  34 1.99  21 2.10  16 2.35
  68  0.687  0.458  0.585-  35 1.85  36 1.91  18 1.92  12 2.26
  69  0.880  0.783  0.583-  27 1.85  36 1.92  24 2.09   4 2.37
  70  0.020  0.603  0.588-  39 1.85  36 2.01  22 2.04   3 2.38
  71  0.692  0.433  0.912-  33 1.86  34 1.89  17 2.03
  72  0.873  0.754  0.910-  34 1.82  25 1.96  23 2.09
  73  0.031  0.585  0.900-  37 1.92  21 1.97  34 2.00   3 2.18
  74  0.694  0.600  0.411-  36 1.80  35 1.97  24 2.05   9 2.28
  75  0.867  0.456  0.413-  36 1.83  39 1.98  18 2.02
  76  0.019  0.771  0.395-  36 1.97  22 2.04  27 2.10  16 2.28
  77  0.196  0.584  0.086-  38 1.89  37 1.94  21 2.01   6 2.37
  78  0.374  0.443  0.075-  33 1.88  38 1.90  19 2.06
  79  0.520  0.767  0.091-  29 1.89  38 2.03  23 2.06
  80  0.198  0.461  0.604-  39 1.95  40 1.96  20 1.99
  81  0.370  0.781  0.599-  31 1.91  40 1.91  22 2.12
  82  0.511  0.597  0.593-  35 1.89  40 1.93  24 2.10  14 2.33
  83  0.199  0.434  0.897-  38 1.91  37 1.98  19 2.09   7 2.36
  84  0.373  0.768  0.896-  38 1.94  29 2.00  21 2.01   3 2.37
  85  0.517  0.570  0.904-  33 1.92  23 1.99  38 2.00   8 2.23
  86  0.201  0.608  0.398-  40 1.93  22 2.00  39 2.07  10 2.22   6 2.31
  87  0.366  0.454  0.408-  35 1.93  40 1.99  20 1.99  10 2.35
  88  0.514  0.785  0.407-  31 1.89  40 1.93  24 2.08  10 2.27  15 2.36

  LATTYP: Found a hexagonal cell.
 ALAT       =    10.0190000534
 C/A-ratio  =     1.1196726572

  Lattice vectors:

 A1 = (  10.0190000534,   0.0000000000,   0.0000000000)
 A2 = (  -5.0095000267,   8.6767085668,   0.0000000000)
 A3 = (   0.0000000000,   0.0000000000,  11.2180004120)

Analysis of symmetry for initial positions (statically):
 Subroutine PRICEL returns:
 Original cell was already a primitive cell.

 Routine SETGRP: Setting up the symmetry group for a
 hexagonal supercell.

 Subroutine GETGRP returns: Found  1 space group operations
 (whereof  1 operations were pure point group operations)
 out of a pool of 24 trial point group operations.

The static configuration has the point symmetry C_1 .

[...]
   4       0.012     0.010     0.954    -0.050     0.956
   5       0.004     0.003     1.162    -0.048     1.162
   6       0.003     0.002     0.744    -0.053     0.745
   7      -0.011    -0.011     2.634    -0.086     2.633
   8       0.005     0.003     3.023    -0.079     3.024
   9      -0.002    -0.002     2.435    -0.120     2.434
  10       0.005     0.007     0.973    -0.057     0.971
  11      -0.004    -0.003     2.661    -0.134     2.661
  12       0.003     0.005     0.539    -0.048     0.538
  13       0.001     0.002     0.763    -0.043     0.762
  14       0.000     0.000     2.532    -0.123     2.532
  15       0.007     0.007     0.976    -0.046     0.976
  16      -0.012    -0.012     2.144    -0.097     2.144
  17       0.050     0.054    12.046     0.130    12.042
  18       0.069     0.074    14.846     0.145    14.842
  19       0.069     0.071    13.430     0.147    13.427
  20       0.010     0.013    10.825     0.091    10.821
  21       0.049     0.052    12.480     0.138    12.477
  22       0.034     0.036    10.638     0.116    10.637
  23       0.077     0.082    12.814     0.123    12.810
  24       0.065     0.069    14.164     0.133    14.160
  25     160.625   160.598    99.236  -138.429    99.263
  26     160.517   160.500    97.425  -138.420    97.442
  27     161.715   161.686    95.309  -140.104    95.338
  28     161.876   161.858    97.579  -140.245    97.597
  29     160.912   160.890    97.229  -139.015    97.250
  30     160.473   160.451    95.109  -138.454    95.131
  31     159.789   159.769    95.208  -137.379    95.228
  32     161.257   161.239    97.806  -139.451    97.823
  33     158.772   158.747    94.369  -136.042    94.394
  34     161.823   161.802   101.584  -140.119   101.605
  35     159.653   159.635    97.303  -137.109    97.322
  36     159.120   159.096    96.190  -136.358    96.214
  37     162.506   162.488    96.897  -141.203    96.915
  38     161.929   161.912    96.391  -140.357    96.407
  39     161.213   161.192    95.965  -139.427    95.986
  40     161.275   161.253    96.694  -139.541    96.715
  41       1.616     1.617     6.244    -1.587     6.242
  42       3.207     3.210    10.218    -3.212    10.215
  43       2.131     2.133     6.907    -2.149     6.904
  44       1.753     1.754     6.694    -1.714     6.693
  45       1.498     1.500     6.067    -1.468     6.065
  46       3.453     3.458    10.202    -3.511    10.197
  47       2.570     2.576     8.417    -2.585     8.412
  48       2.665     2.666     7.234    -2.763     7.232
  49       3.176     3.179     9.582    -3.205     9.579
  50       3.115     3.119    10.111    -3.110    10.108
  51       2.910     2.913     9.236    -2.924     9.233
  52       2.919     2.924     9.057    -2.957     9.052
  53       2.876     2.879     8.405    -2.945     8.401
  54       2.443     2.447     7.796    -2.463     7.792
  55       2.433     2.436     7.312    -2.477     7.309
  56       2.396     2.398     6.557    -2.476     6.556
  57       1.696     1.695     6.644    -1.667     6.644
  58       1.700     1.704     6.303    -1.691     6.299
  59       1.033     1.038     4.722    -1.002     4.717
  60       0.848     0.850     5.056    -0.754     5.054
[...]
  74       2.568     2.577     6.559    -2.705     6.550
  75       2.317     2.325     7.196    -2.372     7.188
  76      -0.484    -0.476     2.718     0.646     2.710
  77       2.223     2.228     8.033    -2.212     8.028
  78       2.140     2.146     5.978    -2.224     5.972
  79       1.399     1.406     6.009    -1.351     6.002
  80       1.898     1.901     7.548    -1.838     7.545
  81       3.183     3.183    10.278    -3.187    10.278
  82       2.682     2.687     7.834    -2.738     7.829
  83       2.291     2.294     8.230    -2.265     8.227
  84       2.461     2.463     8.983    -2.405     8.982
  85       0.716     0.717     3.839    -0.668     3.838
  86       1.863     1.864     8.425    -1.741     8.424
  87       1.786     1.791     6.728    -1.749     6.724
  88       2.043     2.043     6.854    -2.045     6.854

 Dipolar hyperfine coupling parameters (MHz)
  ion      A_xx      A_yy      A_zz      A_xy      A_xz      A_yz
   1      -0.884    -0.576     1.460    -0.029    -0.022     0.040
   2      -0.660    -0.938     1.597     0.221     0.023    -0.041
   3      -0.616    -0.809     1.426     0.158    -0.068    -0.002
   4      -0.850    -1.027     1.878    -0.084     0.003    -0.092
   5      -0.889    -0.990     1.879    -0.255     0.027     0.001
   6      -0.872    -0.971     1.843     0.032    -0.053     0.048
   7      -1.041    -0.525     1.566    -0.006     0.020     0.003
   8      -0.674    -0.881     1.555    -0.297    -0.002    -0.035
   9      -0.867    -0.503     1.369     0.027    -0.045    -0.140
  10      -1.082    -0.821     1.903    -0.025     0.025    -0.008
  11      -0.689    -0.734     1.423     0.181     0.033    -0.004
  12      -0.816    -1.113     1.929     0.085     0.066    -0.032
  13      -0.833    -1.114     1.947    -0.035    -0.035    -0.027
  14      -0.848    -0.540     1.387     0.008     0.029    -0.014
  15      -0.844    -1.140     1.984     0.017    -0.061     0.000
  16      -0.634    -0.872     1.506     0.159     0.046     0.046
  17       1.383     1.537    -2.920     0.016     0.012    -0.020
  18       1.459     1.623    -3.083    -0.027     0.013    -0.055
  19       1.461     1.503    -2.964    -0.022     0.022    -0.177
  20       1.412     1.344    -2.756     0.116    -0.054     0.003
  21       1.396     1.589    -2.985    -0.087    -0.074     0.211
  22       1.328     1.481    -2.809     0.059    -0.002    -0.084
  23       1.505     1.480    -2.986    -0.049     0.013     0.163
  24       1.570     1.437    -3.007    -0.054    -0.084     0.012
  25      -0.288    -1.457     1.745     0.339    -0.180     0.961
  26       0.251     0.019    -0.270     0.317    -0.294     0.129
  27      -0.664     0.391     0.273    -0.452     0.706     1.309
  28       2.414    -0.457    -1.958    -0.387    -1.608     0.448
  29      -0.800     1.508    -0.708    -0.540    -1.768     0.968
  30       0.059    -0.563     0.504    -0.192     0.079    -0.397
  31       0.891     0.659    -1.550    -0.390    -0.972    -0.538
  32      -0.262    -1.123     1.385    -0.276    -0.174    -0.442
  33      -1.692    -0.310     2.002    -0.416    -0.610     0.306
  34       0.123    -3.125     3.002    -0.519     0.281     1.660
  35       0.070    -0.297     0.227     0.312    -0.988     0.369
  36      -2.815    -0.566     3.381     0.355    -0.078    -0.581
  37       0.380    -0.751     0.371    -1.098     0.617     1.170
  38      -0.174    -1.087     1.262     1.744     0.052    -0.829
  39       0.394    -1.666     1.272     1.021     0.318    -0.689
  40       1.961    -0.099    -1.862     0.628    -0.707     0.232
  41      -3.397     0.456     2.942    -3.570     3.340    -3.933
  42      -4.389     3.985     0.404     4.211     1.664     5.018
  43       5.958    -5.657    -0.301     0.772    -4.248     0.839
  44      -4.334     3.856     0.478    -4.165    -3.106     4.601
  45       6.312    -5.534    -0.778     0.753     4.579     0.653
  46      -3.329     2.827     0.502     5.011    -4.165    -3.197
  47      -1.835     2.460    -0.625    -5.567     1.413    -3.265
  48       4.836    -6.766     1.930    -0.627    -5.028     0.060
  49      -3.584     3.769    -0.185     3.436     1.267     4.212
  50      -4.378     5.833    -1.455    -5.457    -0.723     4.537
  51      -1.850     1.704     0.146     5.479    -3.188    -4.343
  52       7.514    -6.671    -0.842     1.020     3.104     0.688
  53      -3.239     2.543     0.696    -6.211     1.335    -4.710
  54      -4.367     1.046     3.322     4.302     2.323     5.006
  55       5.171    -5.436     0.266     0.744    -3.944     1.356
  56      -3.542     1.924     1.618    -4.697    -2.185     3.984
  57       4.808    -7.011     2.203    -1.396     5.559     0.137
  58      -3.210     2.432     0.779     4.221    -1.680    -4.123
  59      -3.767     3.581     0.186    -3.929     1.878    -4.399
  60       4.273    -4.995     0.722    -0.072    -4.848    -0.018
[...]
  74      -5.522     3.301     2.221    -3.575    -3.262     3.914
  75      -4.174     2.600     1.574     5.594    -3.349    -4.062
  76       4.452    -5.552     1.100    -0.402     5.866    -1.110
  77      -1.653     1.849    -0.197    -5.636     2.915    -3.395
  78      -3.105     2.190     0.915     5.822     1.116     4.782
  79       5.007    -6.372     1.365    -0.069    -5.302     0.198
  80      -2.863     1.763     1.100    -3.939    -2.079     2.958
  81       6.660    -5.916    -0.745     1.176     4.846    -0.966
  82      -3.978     2.556     1.422     5.613    -2.478    -3.227
  83      -1.652     0.098     1.554    -3.849     2.249    -3.973
  84       6.152    -5.791    -0.361     0.761    -3.632     1.108
  85      -3.704     2.589     1.115     4.391     3.020     4.251
  86      -1.224     3.212    -1.988    -4.498    -2.931     1.639
  87      -1.261     1.501    -0.240     5.553    -3.062    -3.933
  88       4.918    -5.303     0.385    -0.442     4.038     0.434

 Total hyperfine coupling parameters after diagonalization (MHz)
 (convention: |A_zz| > |A_xx| > |A_yy|)
  ion      A_xx      A_yy      A_zz     asymmetry (A_yy - A_xx)/ A_zz
   1       2.174     1.861     4.209      -0.074
   2       2.396     1.873     4.531      -0.115
   3       2.063     1.694     4.021      -0.092
   4       0.139    -0.107     2.837      -0.087
   5       0.482    -0.037     3.042      -0.171
   6      -0.237    -0.119     2.590       0.046
   7       2.108     1.591     4.199      -0.123
   8       2.561     1.931     4.580      -0.138
   9       1.923     1.564     3.815      -0.094
  10       0.153    -0.113     2.875      -0.093
  11       2.131     1.766     4.085      -0.089
  12      -0.599    -0.257     2.469       0.138
  13      -0.357    -0.067     2.710       0.107
  14       1.992     1.683     3.920      -0.079
  15      -0.165     0.131     2.962       0.100
  16       1.588     1.191     3.651      -0.109
  17      13.424     9.122    13.581      -0.317
  18      16.297    11.758    16.470      -0.276
  19      14.879    10.456    14.947      -0.296
  20      12.079     8.065    12.320      -0.326
  21      13.839     9.481    14.110      -0.309
  22      11.945     7.826    12.139      -0.339
  23      14.256     9.818    14.355      -0.309
  24      15.578    11.152    15.751      -0.281
  25      99.064    97.449   101.278      -0.016
  26      97.457    96.914    97.956      -0.006
  27      95.345    93.677    96.993      -0.017
  28      97.111    95.066   100.613      -0.020
  29      97.425    94.705    99.621      -0.027
  30      95.192    94.404    95.798      -0.008
  31      95.967    93.187    96.529      -0.029
  32      97.640    96.536    99.293      -0.011
  33      94.113    92.518    96.550      -0.017
  34     101.810    97.972   105.034      -0.037
  35      97.301    96.201    98.464      -0.011
  36      95.616    93.345    99.681      -0.023
  37      97.902    94.795    98.049      -0.032
  38      97.217    93.848    98.157      -0.034
  39      96.799    93.737    97.423      -0.031
  40      96.533    94.665    98.948      -0.019
  41       4.019     0.582    14.127      -0.243
  42       7.410     4.039    19.196      -0.176
  43       4.795     0.902    15.016      -0.259
  44       3.965     0.342    15.772      -0.230
  45       3.066     0.440    14.688      -0.179
  46       8.496     3.291    18.804      -0.277
  47       6.436     2.645    16.154      -0.235
  48       5.403     0.426    15.868      -0.314
  49       6.968     4.593    17.177      -0.138
  50       7.208     3.058    20.057      -0.207
  51       6.091     3.399    18.208      -0.148
  52       7.205     2.267    17.685      -0.279
  53       6.755     0.904    17.546      -0.333
  54       5.674     1.027    16.674      -0.279
  55       5.967     1.288    14.671      -0.319
  56       4.893     0.312    14.463      -0.317
  57       4.627    -0.616    15.922      -0.329
  58       4.236     0.784    13.877      -0.249
  59       2.032    -0.755    12.873      -0.217
  60       2.390     0.057    12.715      -0.183
[...]
  74       5.362    -0.656    14.945      -0.403
  75       5.369    -0.260    16.456      -0.342
  76      -3.077    -0.447    11.654       0.226
  77       5.523     2.196    16.363      -0.203
  78       4.505    -1.296    14.707      -0.394
  79       3.586    -0.375    14.796      -0.268
  80       6.240     2.404    13.992      -0.274
  81       7.706     3.766    19.360      -0.204
  82       6.881     0.584    16.021      -0.393
  83       6.124     3.369    15.187      -0.181
  84       7.413     2.773    16.760      -0.277
  85      -2.239     1.434    12.318       0.298
  86       6.560     3.290    15.421      -0.212
  87       3.686     1.122    15.364      -0.167
  88       4.979     1.445    14.139      -0.250

 stress matrix after NEB project (eV)
    -46.75284     -1.09177      1.56061
     -1.09122    -45.40094     -1.25578
      1.54356     -1.24333    -60.95625
  FORCES: max atom, RMS     2.308543    1.172630
  FORCE total and by dimension   11.000249    2.036909
  Stress total and by dimension   89.292000   60.956252

 total charge

[...]

 magnetization (x)

# of ion       s       p       d       tot
    1        0.002   0.000   0.000   0.003
    2        0.002   0.000   0.000   0.002
    3        0.002   0.000   0.000   0.002
    4        0.001   0.000   0.000   0.001
    5        0.001   0.000   0.000   0.001
    6        0.001   0.000   0.000   0.001
    7        0.002  -0.000   0.000   0.002
    8        0.002   0.000   0.000   0.002
    9        0.002   0.000   0.000   0.002
   10        0.001   0.000   0.000   0.001
   11        0.002   0.000   0.000   0.002
   12        0.000   0.000   0.000   0.001
   13        0.001   0.000   0.000   0.001
   14        0.002   0.000   0.000   0.002
   15        0.001   0.000   0.000   0.001
   16        0.002  -0.000   0.000   0.002
   17        0.007   0.002   0.001   0.010
   18        0.009   0.003   0.002   0.013
   19        0.007   0.003   0.001   0.011
   20        0.006   0.001   0.001   0.008
   21        0.007   0.002   0.001   0.010
   22        0.006   0.001   0.001   0.008
   23        0.007   0.003   0.002   0.012
   24        0.008   0.003   0.001   0.012
   25        0.016   0.030   2.747   2.794
   26        0.016   0.030   2.746   2.792
   27        0.015   0.030   2.770   2.815
   28        0.015   0.029   2.774   2.818
   29        0.016   0.029   2.756   2.801
   30        0.015   0.031   2.744   2.789
   31        0.015   0.030   2.731   2.776
   32        0.016   0.031   2.760   2.806
   33        0.015   0.032   2.709   2.756
   34        0.016   0.030   2.773   2.819
   35        0.016   0.032   2.726   2.773
   36        0.015   0.031   2.717   2.763
   37        0.015   0.028   2.787   2.830
   38        0.015   0.030   2.776   2.821
   39        0.015   0.029   2.761   2.805
   40        0.015   0.029   2.764   2.808
   41        0.002   0.023   0.000   0.025
   42        0.003   0.050   0.000   0.052
   43        0.002   0.032   0.000   0.034
   44        0.002   0.025   0.000   0.027
   45        0.002   0.021   0.000   0.023
   46        0.002   0.054   0.000   0.057
   47        0.002   0.039   0.000   0.041
   48        0.002   0.042   0.000   0.043
   49        0.002   0.050   0.000   0.052
   50        0.003   0.048   0.000   0.051
   51        0.002   0.045   0.000   0.047
   52        0.002   0.045   0.000   0.047
   53        0.002   0.045   0.000   0.047
   54        0.002   0.037   0.000   0.039
   55        0.002   0.038   0.000   0.040
   56        0.002   0.037   0.000   0.039
   57        0.002   0.024   0.000   0.026
   58        0.002   0.024   0.000   0.026
   59        0.001   0.013   0.000   0.015
   60        0.002   0.010   0.000   0.011
[...]
   74        0.002   0.040   0.000   0.042
   75        0.002   0.035   0.000   0.037
   76        0.001  -0.014   0.000  -0.012
   77        0.002   0.032   0.000   0.035
   78        0.002   0.033   0.000   0.034
   79        0.002   0.019   0.000   0.021
   80        0.002   0.027   0.000   0.029
   81        0.003   0.049   0.000   0.052
   82        0.002   0.042   0.000   0.044
   83        0.002   0.034   0.000   0.036
   84        0.002   0.037   0.000   0.039
   85        0.001   0.008   0.000   0.010
   86        0.002   0.026   0.000   0.028
   87        0.002   0.026   0.000   0.028
   88        0.002   0.031   0.000   0.032
tot          0.420   2.098  44.050  46.569